Bi V O                                  
   1.00000000000000     
     5.1667509079000000    0.0000000000000000    0.0000000000000000
     0.0000000000000000    5.1672091483999996    0.0000000000000000
     0.0000000000000000    0.0000000000000000   32.0000000000000000
   Bi   V    O 
    10     8    36
Direct
  0.0000000000193552  0.2500000893906176  0.2224311459526933
  0.0000000000193552  0.2500000893906176  0.5963046014653283
  0.0000000000193552  0.2500000893906176  0.9575888353171740
  0.0000000000193552  0.7499998807286516  0.1447942418078234
  0.0000000000193552  0.7499998807286516  0.5060784756596693
  0.0000000000193552  0.7499998807286516  0.8799519311723043
  0.4999997913679195  0.7500002979751628  0.4120887427067658
  0.4999997913679195  0.7500002979751628  0.7790587639364709
  0.5000001788454682  0.2499997168490822  0.3233243186572831
  0.5000001788454682  0.2499997168490822  0.6902943398869806
  0.0000000000193552  0.2499998807673549  0.4121931100671353
  0.0000000000193552  0.2499998807673549  0.7794149205929989
  0.0000000000193552  0.7500001191552315  0.3229681510945069
  0.0000000000193552  0.7500001191552315  0.6901899616203628
  0.4999997019500242  0.7499999999419416  0.2267713785563183
  0.4999997019500242  0.7499999999419416  0.5964200169197544
  0.5000002980693310  0.2499999999806448  0.5059630492677452
  0.5000002980693310  0.2499999999806448  0.8756116876311885
  0.1363787360489951  0.4961745891883124  0.4414558848047158
  0.1393023135308552  0.4888115315529994  0.8091177405583727
  0.8606977013914869  0.5111884983664418  0.2932653256291267
  0.8636212788733482  0.5038254407311282  0.6609271813827833
  0.3731009748996879  0.5041946165028994  0.2551392465099180
  0.3625717021920272  0.5022293775128434  0.6254589662774745
  0.6374283276332956  0.4977706224097422  0.4769241218162711
  0.6268990549256349  0.4958053834196868  0.8472438415838341
  0.1842980108960856  0.3821382833318090  0.1629298391750132
  0.2473179882609676  0.3922949168760412  0.5346307094867500
  0.2520417137577176  0.3877086560436067  0.9072583865803731
  0.7479582862616371  0.6122913440725098  0.1951246796071264
  0.7526820117583877  0.6077050832400760  0.5677523567007496
  0.8157019891232695  0.6178617167843073  0.9394532270124861
  0.2549818562153415  0.6013504172530931  0.3513432671725421
  0.2533003272952197  0.6056956451375923  0.7187949710972863
  0.7466997025301034  0.3943043549785240  0.3835881019652192
  0.7450181736099818  0.3986495828630239  0.7510398058899561
  0.6268987568659815  0.9958054533220286  0.2551392246036652
  0.6374280295736422 -0.0022293076879159  0.6254589444024785
  0.3625719702521684  0.0022293076879159  0.4769241436912742
  0.3731012429598291  0.0041945466779715  0.8472438634900799
  0.1393021943069924 -0.0111877881571426  0.2932652818166281
  0.1363786168251323 -0.0038247305218292  0.6609271375702777
  0.7450193060431299  0.8986494040043821  0.3513434423912936
  0.7467008349632516  0.8943041761198829  0.7187951463160307
  0.2532991946685269  0.1056958164486364  0.3835879294652174
  0.2549807235886486  0.1013505885641365  0.7510396333899614
  0.8157030619444898  0.1178613665372090  0.1629296968000126
  0.7526830845796080  0.1077047329929770  0.5346305671117493
  0.7479593590828574  0.1122909938254112  0.9072582442053724
  0.2520406111305369  0.8877090136447735  0.1951248329196251
  0.2473168856337869  0.8922952744772074  0.5677525100132554
  0.1842969082689049  0.8821386409329760  0.9394533803249848
  0.8636213980972109  0.0038247305218292  0.4414559286172214
  0.8606978206153497  0.0111877881571427  0.8091177843708712
 
  0.00000000E+00  0.00000000E+00  0.00000000E+00
  0.00000000E+00  0.00000000E+00  0.00000000E+00
  0.00000000E+00  0.00000000E+00  0.00000000E+00
  0.00000000E+00  0.00000000E+00  0.00000000E+00
  0.00000000E+00  0.00000000E+00  0.00000000E+00
  0.00000000E+00  0.00000000E+00  0.00000000E+00
  0.00000000E+00  0.00000000E+00  0.00000000E+00
  0.00000000E+00  0.00000000E+00  0.00000000E+00
  0.00000000E+00  0.00000000E+00  0.00000000E+00
  0.00000000E+00  0.00000000E+00  0.00000000E+00
  0.00000000E+00  0.00000000E+00  0.00000000E+00
  0.00000000E+00  0.00000000E+00  0.00000000E+00
  0.00000000E+00  0.00000000E+00  0.00000000E+00
  0.00000000E+00  0.00000000E+00  0.00000000E+00
  0.00000000E+00  0.00000000E+00  0.00000000E+00
  0.00000000E+00  0.00000000E+00  0.00000000E+00
  0.00000000E+00  0.00000000E+00  0.00000000E+00
  0.00000000E+00  0.00000000E+00  0.00000000E+00
  0.00000000E+00  0.00000000E+00  0.00000000E+00
  0.00000000E+00  0.00000000E+00  0.00000000E+00
  0.00000000E+00  0.00000000E+00  0.00000000E+00
  0.00000000E+00  0.00000000E+00  0.00000000E+00
  0.00000000E+00  0.00000000E+00  0.00000000E+00
  0.00000000E+00  0.00000000E+00  0.00000000E+00
  0.00000000E+00  0.00000000E+00  0.00000000E+00
  0.00000000E+00  0.00000000E+00  0.00000000E+00
  0.00000000E+00  0.00000000E+00  0.00000000E+00
  0.00000000E+00  0.00000000E+00  0.00000000E+00
  0.00000000E+00  0.00000000E+00  0.00000000E+00
  0.00000000E+00  0.00000000E+00  0.00000000E+00
  0.00000000E+00  0.00000000E+00  0.00000000E+00
  0.00000000E+00  0.00000000E+00  0.00000000E+00
  0.00000000E+00  0.00000000E+00  0.00000000E+00
  0.00000000E+00  0.00000000E+00  0.00000000E+00
  0.00000000E+00  0.00000000E+00  0.00000000E+00
  0.00000000E+00  0.00000000E+00  0.00000000E+00
  0.00000000E+00  0.00000000E+00  0.00000000E+00
  0.00000000E+00  0.00000000E+00  0.00000000E+00
  0.00000000E+00  0.00000000E+00  0.00000000E+00
  0.00000000E+00  0.00000000E+00  0.00000000E+00
  0.00000000E+00  0.00000000E+00  0.00000000E+00
  0.00000000E+00  0.00000000E+00  0.00000000E+00
  0.00000000E+00  0.00000000E+00  0.00000000E+00
  0.00000000E+00  0.00000000E+00  0.00000000E+00
  0.00000000E+00  0.00000000E+00  0.00000000E+00
  0.00000000E+00  0.00000000E+00  0.00000000E+00
  0.00000000E+00  0.00000000E+00  0.00000000E+00
  0.00000000E+00  0.00000000E+00  0.00000000E+00
  0.00000000E+00  0.00000000E+00  0.00000000E+00
  0.00000000E+00  0.00000000E+00  0.00000000E+00
  0.00000000E+00  0.00000000E+00  0.00000000E+00
  0.00000000E+00  0.00000000E+00  0.00000000E+00
  0.00000000E+00  0.00000000E+00  0.00000000E+00
  0.00000000E+00  0.00000000E+00  0.00000000E+00
