V24 Bi24 O96                            
   1.00000000000000     
     5.1672092792590378    0.0000000000000000   -5.1667508474248462
    -0.0000000000000086   11.7587529796918187   -5.1667508474248489
     0.0000000000000000    0.0000000000000000   56.8342593216733079
   Bi   V    O 
    24    24    96
Direct
  0.2054315320121280  0.6477592738819400  0.0729671435682549
  0.7866398563126412  0.3702219058474639  0.0132812878870833
  0.7385816798434179  0.1147753588286759  0.0358764147120584
  0.2370945239030589  0.8640674138425921  0.0542280565493915
  0.2452452494887538  0.6194798281412309  0.1687598520680761
  0.7453759911312418  0.3674111060234383  0.1046502316931954
  0.7332717633118617  0.1162985642975226  0.1220728981206873
  0.2586773595053806  0.8723342782756002  0.1475742372744920
  0.2468028454106345  0.6250652720335004  0.2605896849946656
  0.7532041879717154  0.3712488461071904  0.1934465571534758
  0.7519759807034375  0.1218615382131694  0.2163783815323693
  0.2538669655348957  0.8731797103904774  0.2385253948733028
  0.2467958120282847  0.6287511538928097  0.3520079883010710
  0.7531971545893584  0.3749347279664996  0.2848648604598812
  0.7461330344651043  0.1268202896095227  0.3069291505812440
  0.2480240192965626  0.8781384617868235  0.3290761639221774
  0.2546240088687581  0.6325888939765618  0.4408043137613513
  0.7547547505112462  0.3805201718587690  0.3766946933864707
  0.7413226404946195  0.1276657217243998  0.3978803081800548
  0.2667282366881383  0.8837014357024703  0.4233816473338594
  0.2133601436873588  0.6297780941525362  0.5321732575674635
  0.7945684679878721  0.3522407261180600  0.4724874018862918
  0.7629054760969411  0.1359325861574078  0.4912264889051552
  0.2614183201565822  0.8852246411713240  0.5095781307424883
  0.2234716608662721  0.1293682258313531  0.0321903696765979
  0.7446681165948362  0.8786591979128752  0.0561475034071296
  0.7533238836138986  0.6216521212273163  0.0757643066654261
  0.3420128063459120  0.4144129169567884  0.0271669202708846
  0.2480723879240569  0.1261317394360624  0.1245428737366117
  0.7507516628305030  0.8776254960210683  0.1479841265190250
  0.7452479634850903  0.6267340082768150  0.1695809848311750
  0.2366755998270201  0.3720460640420581  0.1013647767036524
  0.2498052271202220  0.1261268239299236  0.2160473548970746
  0.7497257519646064  0.8756625747063314  0.2387234545470867
  0.7503051620346720  0.6237806626231477  0.2611672957559945
  0.2490791829389651  0.3732163638065178  0.1931344122833643
  0.2502742480353937  0.1243374252936687  0.3067310909074529
  0.7501947728797780  0.8738731760700763  0.3294071905574722
  0.7509208170610349  0.6267836361934821  0.3523201331711825
  0.2496948379653278  0.3762193373768524  0.2842872496985523
  0.2492483371694970  0.1223745039789317  0.3974704189355218
  0.7519276120759432  0.8738682605639376  0.4209116717179351
  0.7633244001729799  0.6279539359579418  0.4440897687508872
  0.2547520365149098  0.3732659917231849  0.3758735606233646
  0.2553318834051638  0.1213408020871249  0.4893070420474172
  0.7765283391337279  0.8706317741686468  0.5132641757779488
  0.6579871936540880  0.5855870830432116  0.5182876251836622
  0.2466761163861015  0.3783478787726839  0.4696902387891207
  0.4787139073250775  0.2042509812900871  0.0770102455984858
  0.5186446870373590  0.7967679687220399  0.0183421705682941
  0.5369333236099318  0.7160516168814061  0.0562131707943822
  0.4871008494673762  0.2951506579747982  0.0404600927475675
  0.3340499117179178  0.4055390472474146  0.9965123319778556
  0.5623700951947226  0.5253950004911809  0.0682213869524987
  0.6132586491726205  0.9607538453952003  0.0745656488769166
  0.3724088969739685  0.0545179911483684  0.0168275131480256
  0.0348333119478225  0.7149622082324151  0.0332888436675802
  0.9661359983022921  0.3050814221482602  0.0565860282506312
  0.9858252444853021  0.2137691938382527  0.0054965426636190
  0.0154411431863713  0.8001144115199237  0.0866210856789847
  0.8798620614173929  0.9570179177833750  0.0505870086910817
  0.0637114603246911  0.0454541310614911  0.0306375772109886
  0.0538798563863855  0.4495612425386267  0.0191355096164348
  0.8630973525250836  0.5484577767505845  0.0538336822283581
  0.4946003449367837  0.2029644778303955  0.1673357181836626
  0.4962376268303208  0.8041975238593824  0.1046357292405861
  0.5104106019795398  0.7128948737905807  0.1441047818911071
  0.4763609701250435  0.2916070894631710  0.1294695314632973
  0.3823684176654069  0.4474342769975773  0.0994731603281008
  0.6036957984016992  0.5480877389378146  0.1721801183031695
  0.6101233786385352  0.9540228468616264  0.1654972451856095
  0.3839326516823207  0.0464209951031392  0.1072510463132516
  0.0010136891208416  0.6886371860820747  0.1196944177200098
  0.9952236576202783  0.2934524427691651  0.1497270011111552
  0.9745536261594052  0.1988165294438505  0.0929802014315944
  0.9994978761158896  0.7960341172321882  0.1747492264368131
  0.8886253972071592  0.9564632933686060  0.1452534832657998
  0.1136758351475732  0.0446945261912040  0.1268034231386409
  0.0953195351848869  0.4548171549138858  0.1181368714261169
  0.8754502025548898  0.5467619281880947  0.1506955308170772
  0.5021616383940567  0.2034107471361019  0.2589691945425070
  0.5025553046086819  0.7965294054433312  0.1965936896127653
  0.5032544055652601  0.7032838165551298  0.2333607793998805
  0.4987929256343006  0.2969972244659064  0.2216597205755394
  0.3836001509095702  0.4516069021405459  0.1896392222695394
  0.6086880067814016  0.5462535372360811  0.2640943427252734
  0.6106585720614766  0.9536167454809246  0.2561545789677647
  0.3895859669003901  0.0484597569840824  0.1987576151457705
  0.0047320278473011  0.7008469585203784  0.2125513654171018
  0.9962011341581687  0.2984933750265626  0.2415964454744721
  0.0033487385212032  0.2069819748672153  0.1887119267244010
  0.0013933875423190  0.7964655456141581  0.2667752150258704
  0.8898137774440159  0.9542430643352929  0.2357558292594864
  0.1089910980125600  0.0464347928141797  0.2185465069827930
  0.1058428411802039  0.4532304270678899  0.2095549172637027
  0.8866769720352972  0.5445834666931942  0.2434596482367065
  0.4974446953913181  0.2034705795566641  0.3488608558417743
  0.4978383616059505  0.7965892378638932  0.2864853509120397
  0.5012070743656994  0.7030027755340936  0.3237948248790073
  0.4967455944347399  0.2967161834448703  0.3120937660546662
  0.3913119932185984  0.4537464627639190  0.2813602027292733
  0.6163998490904299  0.5483930978594541  0.3558153231850002
  0.6104140330996100  0.9515402580159223  0.3466969316724143
  0.3893414279385235  0.0463832695190802  0.2892999678504130
  0.0037988658418313  0.7015066249734374  0.3038580999800746
  0.9952679721526990  0.2991530414796216  0.3329031800374378
  0.9986066124576809  0.2035344393858372  0.2786793304286763
  0.9966512614788039  0.7930180101327798  0.3567426187301457
  0.8910088869874352  0.9535652221858251  0.3269080384717537
  0.1101862075559722  0.0457569506647119  0.3096987161950603
  0.1133230129647051  0.4554165333068058  0.3019948958542021
  0.8941571438197984  0.5467695729321101  0.3358996268272060
  0.5037623731696793  0.1958024611406129  0.4408188162139606
  0.5053996550632163  0.7970355071695998  0.3781188272708841
  0.5236390298749565  0.7083929105368290  0.4159850139912495
  0.4895893980204601  0.2871051262094194  0.4013497635634397
  0.3963042015983009  0.4519122610621854  0.3732744271513772
  0.6176315823345931  0.5525657230024227  0.4459813851264459
  0.6160673483176793  0.9535790198968656  0.4382035005049332
  0.3898766213614648  0.0459771681383783  0.3799573016325752
  0.0047763423797217  0.7065475572308348  0.3957275443433916
  0.9989863108791585  0.3113628139179253  0.4257601277345370
  0.0005021238841105  0.2039658677678070  0.3707053190177266
  0.0254463738405947  0.8011834555561448  0.4524743440229523
  0.8863241498524218  0.9553054888088008  0.4186511223159058
  0.1113745877928361  0.0435367216313987  0.4002010621887469
  0.1245497824451124  0.4532380718118984  0.3947590132738315
  0.9046804498151154  0.5451828450861143  0.4273176726647918
  0.4813553129626410  0.2032320162779553  0.5271123748862525
  0.5212860926749224  0.7957490037099081  0.4684442998560610
  0.5128991505326239  0.7048493420252018  0.5049944527069722
  0.4630666763900682  0.2839483831185940  0.4892413746601645
  0.4376299048052775  0.4746049995088190  0.4772331585020409
  0.6659500882820822  0.5944609527525854  0.5489422134766911
  0.6275911030260316  0.9454820238516365  0.5286270336701521
  0.3867413508273795  0.0392461696048045  0.4708888979412682
  0.0338640016977078  0.6949185778517399  0.4888685172039156
  0.9651666880521775  0.2850377917675850  0.5121657017869666
  0.9845588568136288  0.1998855734800715  0.4588334597755620
  0.0141747555146979  0.7862307911617425  0.5399580027909278
  0.9362885246753041  0.9545458839385137  0.5148169682435509
  0.1201379235826024  0.0429820972166298  0.4948675367634651
  0.1369026324749187  0.4515422232494155  0.4916208618625577
  0.9461201286136167  0.5504387574613732  0.5263190344744738
 
  0.00000000E+00  0.00000000E+00  0.00000000E+00
  0.00000000E+00  0.00000000E+00  0.00000000E+00
  0.00000000E+00  0.00000000E+00  0.00000000E+00
  0.00000000E+00  0.00000000E+00  0.00000000E+00
  0.00000000E+00  0.00000000E+00  0.00000000E+00
  0.00000000E+00  0.00000000E+00  0.00000000E+00
  0.00000000E+00  0.00000000E+00  0.00000000E+00
  0.00000000E+00  0.00000000E+00  0.00000000E+00
  0.00000000E+00  0.00000000E+00  0.00000000E+00
  0.00000000E+00  0.00000000E+00  0.00000000E+00
  0.00000000E+00  0.00000000E+00  0.00000000E+00
  0.00000000E+00  0.00000000E+00  0.00000000E+00
  0.00000000E+00  0.00000000E+00  0.00000000E+00
  0.00000000E+00  0.00000000E+00  0.00000000E+00
  0.00000000E+00  0.00000000E+00  0.00000000E+00
  0.00000000E+00  0.00000000E+00  0.00000000E+00
  0.00000000E+00  0.00000000E+00  0.00000000E+00
  0.00000000E+00  0.00000000E+00  0.00000000E+00
  0.00000000E+00  0.00000000E+00  0.00000000E+00
  0.00000000E+00  0.00000000E+00  0.00000000E+00
  0.00000000E+00  0.00000000E+00  0.00000000E+00
  0.00000000E+00  0.00000000E+00  0.00000000E+00
  0.00000000E+00  0.00000000E+00  0.00000000E+00
  0.00000000E+00  0.00000000E+00  0.00000000E+00
  0.00000000E+00  0.00000000E+00  0.00000000E+00
  0.00000000E+00  0.00000000E+00  0.00000000E+00
  0.00000000E+00  0.00000000E+00  0.00000000E+00
  0.00000000E+00  0.00000000E+00  0.00000000E+00
  0.00000000E+00  0.00000000E+00  0.00000000E+00
  0.00000000E+00  0.00000000E+00  0.00000000E+00
  0.00000000E+00  0.00000000E+00  0.00000000E+00
  0.00000000E+00  0.00000000E+00  0.00000000E+00
  0.00000000E+00  0.00000000E+00  0.00000000E+00
  0.00000000E+00  0.00000000E+00  0.00000000E+00
  0.00000000E+00  0.00000000E+00  0.00000000E+00
  0.00000000E+00  0.00000000E+00  0.00000000E+00
  0.00000000E+00  0.00000000E+00  0.00000000E+00
  0.00000000E+00  0.00000000E+00  0.00000000E+00
  0.00000000E+00  0.00000000E+00  0.00000000E+00
  0.00000000E+00  0.00000000E+00  0.00000000E+00
  0.00000000E+00  0.00000000E+00  0.00000000E+00
  0.00000000E+00  0.00000000E+00  0.00000000E+00
  0.00000000E+00  0.00000000E+00  0.00000000E+00
  0.00000000E+00  0.00000000E+00  0.00000000E+00
  0.00000000E+00  0.00000000E+00  0.00000000E+00
  0.00000000E+00  0.00000000E+00  0.00000000E+00
  0.00000000E+00  0.00000000E+00  0.00000000E+00
  0.00000000E+00  0.00000000E+00  0.00000000E+00
  0.00000000E+00  0.00000000E+00  0.00000000E+00
  0.00000000E+00  0.00000000E+00  0.00000000E+00
  0.00000000E+00  0.00000000E+00  0.00000000E+00
  0.00000000E+00  0.00000000E+00  0.00000000E+00
  0.00000000E+00  0.00000000E+00  0.00000000E+00
  0.00000000E+00  0.00000000E+00  0.00000000E+00
  0.00000000E+00  0.00000000E+00  0.00000000E+00
  0.00000000E+00  0.00000000E+00  0.00000000E+00
  0.00000000E+00  0.00000000E+00  0.00000000E+00
  0.00000000E+00  0.00000000E+00  0.00000000E+00
  0.00000000E+00  0.00000000E+00  0.00000000E+00
  0.00000000E+00  0.00000000E+00  0.00000000E+00
  0.00000000E+00  0.00000000E+00  0.00000000E+00
  0.00000000E+00  0.00000000E+00  0.00000000E+00
  0.00000000E+00  0.00000000E+00  0.00000000E+00
  0.00000000E+00  0.00000000E+00  0.00000000E+00
  0.00000000E+00  0.00000000E+00  0.00000000E+00
  0.00000000E+00  0.00000000E+00  0.00000000E+00
  0.00000000E+00  0.00000000E+00  0.00000000E+00
  0.00000000E+00  0.00000000E+00  0.00000000E+00
  0.00000000E+00  0.00000000E+00  0.00000000E+00
  0.00000000E+00  0.00000000E+00  0.00000000E+00
  0.00000000E+00  0.00000000E+00  0.00000000E+00
  0.00000000E+00  0.00000000E+00  0.00000000E+00
  0.00000000E+00  0.00000000E+00  0.00000000E+00
  0.00000000E+00  0.00000000E+00  0.00000000E+00
  0.00000000E+00  0.00000000E+00  0.00000000E+00
  0.00000000E+00  0.00000000E+00  0.00000000E+00
  0.00000000E+00  0.00000000E+00  0.00000000E+00
  0.00000000E+00  0.00000000E+00  0.00000000E+00
  0.00000000E+00  0.00000000E+00  0.00000000E+00
  0.00000000E+00  0.00000000E+00  0.00000000E+00
  0.00000000E+00  0.00000000E+00  0.00000000E+00
  0.00000000E+00  0.00000000E+00  0.00000000E+00
  0.00000000E+00  0.00000000E+00  0.00000000E+00
  0.00000000E+00  0.00000000E+00  0.00000000E+00
  0.00000000E+00  0.00000000E+00  0.00000000E+00
  0.00000000E+00  0.00000000E+00  0.00000000E+00
  0.00000000E+00  0.00000000E+00  0.00000000E+00
  0.00000000E+00  0.00000000E+00  0.00000000E+00
  0.00000000E+00  0.00000000E+00  0.00000000E+00
  0.00000000E+00  0.00000000E+00  0.00000000E+00
  0.00000000E+00  0.00000000E+00  0.00000000E+00
  0.00000000E+00  0.00000000E+00  0.00000000E+00
  0.00000000E+00  0.00000000E+00  0.00000000E+00
  0.00000000E+00  0.00000000E+00  0.00000000E+00
  0.00000000E+00  0.00000000E+00  0.00000000E+00
  0.00000000E+00  0.00000000E+00  0.00000000E+00
  0.00000000E+00  0.00000000E+00  0.00000000E+00
  0.00000000E+00  0.00000000E+00  0.00000000E+00
  0.00000000E+00  0.00000000E+00  0.00000000E+00
  0.00000000E+00  0.00000000E+00  0.00000000E+00
  0.00000000E+00  0.00000000E+00  0.00000000E+00
  0.00000000E+00  0.00000000E+00  0.00000000E+00
  0.00000000E+00  0.00000000E+00  0.00000000E+00
  0.00000000E+00  0.00000000E+00  0.00000000E+00
  0.00000000E+00  0.00000000E+00  0.00000000E+00
  0.00000000E+00  0.00000000E+00  0.00000000E+00
  0.00000000E+00  0.00000000E+00  0.00000000E+00
  0.00000000E+00  0.00000000E+00  0.00000000E+00
  0.00000000E+00  0.00000000E+00  0.00000000E+00
  0.00000000E+00  0.00000000E+00  0.00000000E+00
  0.00000000E+00  0.00000000E+00  0.00000000E+00
  0.00000000E+00  0.00000000E+00  0.00000000E+00
  0.00000000E+00  0.00000000E+00  0.00000000E+00
  0.00000000E+00  0.00000000E+00  0.00000000E+00
  0.00000000E+00  0.00000000E+00  0.00000000E+00
  0.00000000E+00  0.00000000E+00  0.00000000E+00
  0.00000000E+00  0.00000000E+00  0.00000000E+00
  0.00000000E+00  0.00000000E+00  0.00000000E+00
  0.00000000E+00  0.00000000E+00  0.00000000E+00
  0.00000000E+00  0.00000000E+00  0.00000000E+00
  0.00000000E+00  0.00000000E+00  0.00000000E+00
  0.00000000E+00  0.00000000E+00  0.00000000E+00
  0.00000000E+00  0.00000000E+00  0.00000000E+00
  0.00000000E+00  0.00000000E+00  0.00000000E+00
  0.00000000E+00  0.00000000E+00  0.00000000E+00
  0.00000000E+00  0.00000000E+00  0.00000000E+00
  0.00000000E+00  0.00000000E+00  0.00000000E+00
  0.00000000E+00  0.00000000E+00  0.00000000E+00
  0.00000000E+00  0.00000000E+00  0.00000000E+00
  0.00000000E+00  0.00000000E+00  0.00000000E+00
  0.00000000E+00  0.00000000E+00  0.00000000E+00
  0.00000000E+00  0.00000000E+00  0.00000000E+00
  0.00000000E+00  0.00000000E+00  0.00000000E+00
  0.00000000E+00  0.00000000E+00  0.00000000E+00
  0.00000000E+00  0.00000000E+00  0.00000000E+00
  0.00000000E+00  0.00000000E+00  0.00000000E+00
  0.00000000E+00  0.00000000E+00  0.00000000E+00
  0.00000000E+00  0.00000000E+00  0.00000000E+00
  0.00000000E+00  0.00000000E+00  0.00000000E+00
  0.00000000E+00  0.00000000E+00  0.00000000E+00
  0.00000000E+00  0.00000000E+00  0.00000000E+00
  0.00000000E+00  0.00000000E+00  0.00000000E+00
  0.00000000E+00  0.00000000E+00  0.00000000E+00
  0.00000000E+00  0.00000000E+00  0.00000000E+00
