V10 Bi10 O40                            
   1.00000000000000     
     5.1672091483999996    0.0000000000000000    0.0000000000000000
     2.5836042822000000    6.4219078590000001    0.0000000000000000
     2.5836022610999998    0.5596120891000000   42.5723132075999970
   Bi   V    O 
    10    10    40
Direct
  0.8618096104614986  0.8060309603574157  0.9818487719337458
  0.0411502920035840  0.5270787511821676  0.9061146948164649
  0.7607507747038722  0.1133224970374245  0.8731216299200777
  0.9196894076672985  0.8699262100361762  0.7920022523906659
  0.6391441091506814  0.4558382367966115  0.7636204963841882
  0.8053003088493148  0.2108284342033830  0.6808239216158152
  0.5247550103327049  0.7967404769638267  0.6524421656093374
  0.6836936432961311  0.5533441889625749  0.5713228480799235
  0.4032941499964143  0.1395879348178316  0.5383297231835384
  0.5826348075385047  0.8606357266425871  0.4625957050662516
  0.2999339798631322  0.9573839168647376  0.9301664081046143
  0.5923297981222485  0.3878588848778736  0.9638269238457505
  0.1936804670544072  0.2880324398962376  0.8193302932933927
  0.4744815693674166  0.7075459732094124  0.8479187954210738
  0.0821510351594189  0.6240283655596541  0.7080862090911566
  0.3622934048405792  0.0426383024403438  0.7363582089088467
  0.9699628486325869  0.9591206527905819  0.5965256225789295
  0.2507639799455950  0.3786342171037628  0.6251141247066035
  0.8521146198777548  0.2788077721221268  0.4806174941542529
  0.1445104531368688  0.7092827091352567  0.5142780688953833
  0.5940870935055012  0.8637328364494086  0.9058407275752580
  0.3323171626336672  0.5277846458650003  0.9892493915049621
  0.0943516028956729  0.7970235799421673  0.9374398135649484
  0.8094702553329463  0.5412263217728737  0.9553377150153242
  0.7908442590067514  0.1528438766899465  0.9803396754130971
  0.0690797032669695  0.1814858474799156  0.9123217958719027
  0.4630154564415839  0.3573910524094508  0.9279479069877286
  0.4134847463227300  0.9783295623668309  0.9660877719197611
  0.4954345283026059  0.2039342008668636  0.7948859102255649
  0.1716773418233606  0.7969888840176994  0.8722793952798702
  0.0189715603954604  0.1122586095833155  0.8266770075014630
  0.6497460217799177  0.8833280612068762  0.8405830776147544
  0.7006663363092170  0.4877491470132918  0.8657011809496923
  0.9590480314139384  0.5056775527141845  0.8007172073926095
  0.3731383451316326  0.6641445822390315  0.8112954095709217
  0.2949941232899820  0.3293744075106415  0.8555009311792596
  0.3848640925824550  0.5395268651998684  0.6836273285420810
  0.0595803514175435  0.1271398218001346  0.7608170894579153
  0.9134816497609167  0.4473691105932379  0.7151767591908159
  0.5309627682390866  0.2192975614067673  0.7292677188091853
  0.5973292049707122  0.8256528626710978  0.7549088616447855
  0.8471152720292854  0.8410137643289072  0.6895356163552157
  0.2613157528904237  0.9980620198209009  0.6998931585459854
  0.1831286951095750  0.6686046071791041  0.7445512594540179
  0.2727671061766382  0.8696778019822998  0.5721650827201310
  0.9490099196973929  0.4627324861331393  0.6495585077744314
  0.7946983962200785  0.7833386247931230  0.6038613403852490
  0.4254728846045416  0.5544080694166797  0.6177674694985417
  0.4853964165860674  0.1609891182858172  0.6437272696073880
  0.7437780816907863  0.1789175099867087  0.5787432370503111
  0.1494503247100166  0.3372922494893589  0.5889434868207437
  0.0713060878683684  0.0025220637609716  0.6331490084290816
  0.1121272703663338  0.1388820411350026  0.4551950854950428
  0.8503573844944929  0.8029338495505907  0.5386036904247382
  0.6349741626670571  0.1254403572271215  0.4891067329846816
  0.3500928151043233  0.8696431060578319  0.5070046644350528
  0.3753647377330321  0.4851808095200848  0.5321226821280914
  0.6536001589932449  0.5138227943100552  0.4641047725869014
  0.0309596896772677  0.6883370836331721  0.4783566460802423
  0.9814290205584136  0.3092756045905496  0.5164965710122726
 
  0.00000000E+00  0.00000000E+00  0.00000000E+00
  0.00000000E+00  0.00000000E+00  0.00000000E+00
  0.00000000E+00  0.00000000E+00  0.00000000E+00
  0.00000000E+00  0.00000000E+00  0.00000000E+00
  0.00000000E+00  0.00000000E+00  0.00000000E+00
  0.00000000E+00  0.00000000E+00  0.00000000E+00
  0.00000000E+00  0.00000000E+00  0.00000000E+00
  0.00000000E+00  0.00000000E+00  0.00000000E+00
  0.00000000E+00  0.00000000E+00  0.00000000E+00
  0.00000000E+00  0.00000000E+00  0.00000000E+00
  0.00000000E+00  0.00000000E+00  0.00000000E+00
  0.00000000E+00  0.00000000E+00  0.00000000E+00
  0.00000000E+00  0.00000000E+00  0.00000000E+00
  0.00000000E+00  0.00000000E+00  0.00000000E+00
  0.00000000E+00  0.00000000E+00  0.00000000E+00
  0.00000000E+00  0.00000000E+00  0.00000000E+00
  0.00000000E+00  0.00000000E+00  0.00000000E+00
  0.00000000E+00  0.00000000E+00  0.00000000E+00
  0.00000000E+00  0.00000000E+00  0.00000000E+00
  0.00000000E+00  0.00000000E+00  0.00000000E+00
  0.00000000E+00  0.00000000E+00  0.00000000E+00
  0.00000000E+00  0.00000000E+00  0.00000000E+00
  0.00000000E+00  0.00000000E+00  0.00000000E+00
  0.00000000E+00  0.00000000E+00  0.00000000E+00
  0.00000000E+00  0.00000000E+00  0.00000000E+00
  0.00000000E+00  0.00000000E+00  0.00000000E+00
  0.00000000E+00  0.00000000E+00  0.00000000E+00
  0.00000000E+00  0.00000000E+00  0.00000000E+00
  0.00000000E+00  0.00000000E+00  0.00000000E+00
  0.00000000E+00  0.00000000E+00  0.00000000E+00
  0.00000000E+00  0.00000000E+00  0.00000000E+00
  0.00000000E+00  0.00000000E+00  0.00000000E+00
  0.00000000E+00  0.00000000E+00  0.00000000E+00
  0.00000000E+00  0.00000000E+00  0.00000000E+00
  0.00000000E+00  0.00000000E+00  0.00000000E+00
  0.00000000E+00  0.00000000E+00  0.00000000E+00
  0.00000000E+00  0.00000000E+00  0.00000000E+00
  0.00000000E+00  0.00000000E+00  0.00000000E+00
  0.00000000E+00  0.00000000E+00  0.00000000E+00
  0.00000000E+00  0.00000000E+00  0.00000000E+00
  0.00000000E+00  0.00000000E+00  0.00000000E+00
  0.00000000E+00  0.00000000E+00  0.00000000E+00
  0.00000000E+00  0.00000000E+00  0.00000000E+00
  0.00000000E+00  0.00000000E+00  0.00000000E+00
  0.00000000E+00  0.00000000E+00  0.00000000E+00
  0.00000000E+00  0.00000000E+00  0.00000000E+00
  0.00000000E+00  0.00000000E+00  0.00000000E+00
  0.00000000E+00  0.00000000E+00  0.00000000E+00
  0.00000000E+00  0.00000000E+00  0.00000000E+00
  0.00000000E+00  0.00000000E+00  0.00000000E+00
  0.00000000E+00  0.00000000E+00  0.00000000E+00
  0.00000000E+00  0.00000000E+00  0.00000000E+00
  0.00000000E+00  0.00000000E+00  0.00000000E+00
  0.00000000E+00  0.00000000E+00  0.00000000E+00
  0.00000000E+00  0.00000000E+00  0.00000000E+00
  0.00000000E+00  0.00000000E+00  0.00000000E+00
  0.00000000E+00  0.00000000E+00  0.00000000E+00
  0.00000000E+00  0.00000000E+00  0.00000000E+00
  0.00000000E+00  0.00000000E+00  0.00000000E+00
  0.00000000E+00  0.00000000E+00  0.00000000E+00
