V10 Bi10 O40                            
   1.00000000000000     
     5.1667509079000000    0.0000000000000000    0.0000000000000000
     2.5833751060000001    6.4220000542999998    0.0000000000000000
     2.5833766824000000    0.5568380050000000   42.5754782337999984
   Bi   V    O 
    10     8    32
Direct
  0.4495753105719896  0.2304958483969719  0.9769015834774467
  0.5586846582259559  0.0596393489342562  0.9064203846203669
  0.2550940546207926  0.6105700253733563  0.8718493419725130
  0.4203000256143116  0.3696563553136789  0.7916159900512879
  0.1397983554480220  0.9515662392197602  0.7637090935997695
  0.3046460915519803  0.7151004467802390  0.6807353244002339
  0.0241444133856900  0.2970103306863204  0.6528284279487154
  0.1893503933792064  0.0560966616266469  0.5725950760274904
  0.8857598187740416  0.6070273380657465  0.5380240923796378
 -0.0051308785719853  0.4361708376030273  0.4675428345225495
  0.7964431813708843  0.4605140792449719  0.9331497730929970
  0.6950397657996059  0.7901062419021349  0.8191167028931198
  0.9683144616021082  0.2187102251392070  0.8496347033973329
  0.5858169508432571  0.1227036230611585  0.7081491951771746
  0.8586275261567404  0.5439630259388405  0.7362952828228266
  0.4761299863978914  0.4479564618607957  0.5948097736026717
  0.7494047122003882  0.8765604440978644  0.6253277151068765
  0.6480012956291132  0.2061526077550308  0.5112946449070064
  0.5795256945211813  0.4979285699790896  0.9676444388174507
  0.8386442753937318  0.6832189664817233  0.9178970563547182
  0.6006478238124878  0.3834049615309469  0.9056772351141916
  0.1297979608482652  0.2657516147615765  0.9428537848556191
  0.5221485676326602  0.8347824176835554  0.8553058539146501
  0.1525558325972566  0.1646019797285813  0.8136555368893118
  0.7363681694529716  0.0081784405538954  0.8008888518562600
  0.1570644284722319  0.3119012831899088  0.8741934637022948
  0.4984515530677485  0.7062380378095439  0.7947318046609598
  0.6224001990015142  0.3887940285206762  0.8406913557040592
  0.0382835538339507  0.6128047810631506  0.8261953846609004
  0.4049999379149035  0.1696859591268884  0.7445926247798372
  0.0394445030850912  0.4969807128731165  0.6998518522201674
  0.6222966462438201  0.3382649510246781  0.6891552223158887
  0.8221477707561796  0.3284017059753223  0.7552892556841125
  0.0532321461776135  0.6296787978037192  0.7606793757595950
  0.3912122938223845  0.0369878701962784  0.6837650422404083
  0.5196510354798605  0.7202851470764575  0.7291145460107957
  0.2918886154027421  0.5020647072714223  0.6307888811106915
  0.9222958503673432  0.8318842683164438  0.5891386240853511
  0.5115132025943008  0.6598793084197450  0.5728903630340835
  0.7080762485470318  0.6584882324461065  0.6435556251437375
  0.2873800195277737  0.3547654038100940  0.5702509542977015
  0.4061608771660500  0.0538618869368541  0.6182490333390959
  0.8220442789984870  0.2778726584793196  0.6037530622959442
  0.8649187234788149  0.1687381170209136  0.4768000081825439
  0.8437965941875155  0.2832617254690558  0.5387671828858117
  0.3146464721517359  0.4009150722384192  0.5015906331443842
  0.9329312754057004  0.0067873185802599  0.8715541139659212
  0.9459928649322480  0.9604286481904554  0.6497126133390364
  0.6058001426062645  0.9834476605182817  0.5265474216452830
  0.9247934415201371  0.9463815389235417  0.7153298719892076
 
  0.00000000E+00  0.00000000E+00  0.00000000E+00
  0.00000000E+00  0.00000000E+00  0.00000000E+00
  0.00000000E+00  0.00000000E+00  0.00000000E+00
  0.00000000E+00  0.00000000E+00  0.00000000E+00
  0.00000000E+00  0.00000000E+00  0.00000000E+00
  0.00000000E+00  0.00000000E+00  0.00000000E+00
  0.00000000E+00  0.00000000E+00  0.00000000E+00
  0.00000000E+00  0.00000000E+00  0.00000000E+00
  0.00000000E+00  0.00000000E+00  0.00000000E+00
  0.00000000E+00  0.00000000E+00  0.00000000E+00
  0.00000000E+00  0.00000000E+00  0.00000000E+00
  0.00000000E+00  0.00000000E+00  0.00000000E+00
  0.00000000E+00  0.00000000E+00  0.00000000E+00
  0.00000000E+00  0.00000000E+00  0.00000000E+00
  0.00000000E+00  0.00000000E+00  0.00000000E+00
  0.00000000E+00  0.00000000E+00  0.00000000E+00
  0.00000000E+00  0.00000000E+00  0.00000000E+00
  0.00000000E+00  0.00000000E+00  0.00000000E+00
  0.00000000E+00  0.00000000E+00  0.00000000E+00
  0.00000000E+00  0.00000000E+00  0.00000000E+00
  0.00000000E+00  0.00000000E+00  0.00000000E+00
  0.00000000E+00  0.00000000E+00  0.00000000E+00
  0.00000000E+00  0.00000000E+00  0.00000000E+00
  0.00000000E+00  0.00000000E+00  0.00000000E+00
  0.00000000E+00  0.00000000E+00  0.00000000E+00
  0.00000000E+00  0.00000000E+00  0.00000000E+00
  0.00000000E+00  0.00000000E+00  0.00000000E+00
  0.00000000E+00  0.00000000E+00  0.00000000E+00
  0.00000000E+00  0.00000000E+00  0.00000000E+00
  0.00000000E+00  0.00000000E+00  0.00000000E+00
  0.00000000E+00  0.00000000E+00  0.00000000E+00
  0.00000000E+00  0.00000000E+00  0.00000000E+00
  0.00000000E+00  0.00000000E+00  0.00000000E+00
  0.00000000E+00  0.00000000E+00  0.00000000E+00
  0.00000000E+00  0.00000000E+00  0.00000000E+00
  0.00000000E+00  0.00000000E+00  0.00000000E+00
  0.00000000E+00  0.00000000E+00  0.00000000E+00
  0.00000000E+00  0.00000000E+00  0.00000000E+00
  0.00000000E+00  0.00000000E+00  0.00000000E+00
  0.00000000E+00  0.00000000E+00  0.00000000E+00
  0.00000000E+00  0.00000000E+00  0.00000000E+00
  0.00000000E+00  0.00000000E+00  0.00000000E+00
  0.00000000E+00  0.00000000E+00  0.00000000E+00
  0.00000000E+00  0.00000000E+00  0.00000000E+00
  0.00000000E+00  0.00000000E+00  0.00000000E+00
  0.00000000E+00  0.00000000E+00  0.00000000E+00
  0.00000000E+00  0.00000000E+00  0.00000000E+00
  0.00000000E+00  0.00000000E+00  0.00000000E+00
  0.00000000E+00  0.00000000E+00  0.00000000E+00
  0.00000000E+00  0.00000000E+00  0.00000000E+00
