V10 Bi10 O40                            
   1.00000000000000     
     5.1672091483999996    0.0000000000000000    0.0000000000000000
     2.5836042822000000    6.4219078590000001    0.0000000000000000
     2.5836022610999998    0.5596120891000000   42.5723132075999970
   Bi   V    O 
    10     8    32
Direct
  0.8428923032978802  0.7304764357172183  0.9768547180974776
  0.9750895847642154  0.5597715562606467  0.9064362933096475
  0.7624439177017154  0.1106330583054441  0.8718332088565754
  0.9186872628302710  0.8696041280681179  0.7916056643056080
  0.6450455722110260  0.4515771760807445  0.7637086644717412
  0.7993988457889702  0.2150894949192500  0.6807357535282621
  0.5257571551697323  0.7970625589318849  0.6528387536943954
  0.6820005002982880  0.5560336276945549  0.5726112691434257
  0.4693548572357830  0.1068951297393524  0.5380081246903559
  0.6015521147021231  0.9361902512827845  0.4675897589025202
  0.3097487463943567  0.9603871155397975  0.9330863731449454
  0.1960327026339568  0.2899019756623226  0.8190945114366912
  0.4633958981183600  0.7188151935424218  0.8496394744151262
  0.0833589238684686  0.6226174303418419  0.7081357671254107
  0.3610855161315295  0.0440492376581558  0.7363086508745926
  0.9810485198816434  0.9478514324575724  0.5948049435848771
  0.2484117443660454  0.3767646813376778  0.6253499065633050
  0.1346956866056444  0.7062795104601968  0.5113581038550522
  0.6101832831579215  0.8835253539786785  0.9056181947747293
  0.1617701712394861  0.7653225635209884  0.9427951517190434
  0.0596951273096732  0.1830761004445411  0.9178702937351634
  0.5009610895526425  0.2062385431049803  0.7947138092318591
  0.1569148522024049  0.8120765707974227  0.8741830696464781
  0.6480851235540250  0.8888334550106585  0.8406589223906150
  0.6883980900979914  0.5068627310819942  0.8715467610818585
  0.9547919184722561  0.5080163525746278  0.8008711925846912
  0.3693597051423262  0.6644233439232846  0.8136827043429329
  0.2878765942146534  0.3346226181048931  0.8552939399469348
  0.3881097729422377  0.5368621942665479  0.6837593334540840
  0.0563346710577607  0.1298044927334547  0.7606850845459122
  0.9135230840455983  0.4463354301209109  0.7153280808098980
  0.5309213339544050  0.2203312418790944  0.7291163971901032
  0.5939750088432059  0.8285196673383358  0.7553185856519226
  0.8504694681567917  0.8381469596616692  0.6891258923480786
  0.2637724746901897  0.9969142309561850  0.6998736358661718
  0.1806719733098090  0.6697523960438200  0.7445707821338315
  0.2875295957975939  0.8545901152025766  0.5702614083535231
  0.9434833584473562  0.4604281438950228  0.6497306087681372
  0.7963592944459712  0.7778332309893408  0.6037854956093883
  0.4214808257710661  0.5540229993772577  0.6182886287758643
  0.4896525295277425  0.1586503184253735  0.6435732844153064
  0.7560463279020120  0.1598039259180064  0.5728976569181449
  0.1565678537853454  0.3320440388951073  0.5891504780530685
  0.8342611948420726  0.7831413320213207  0.5388262232252670
  0.2826742467605102  0.9013441224790109  0.5016493262809578
  0.3847493136903286  0.4835905565554590  0.5265741842648307
  0.9898816521934489  0.6688425061421752  0.4768518082258749
  0.4545627838065484 -0.0021758601421720  0.9675926097741284
  0.0229636192289360  0.1126436796227375  0.8261558482241403
  0.0750847278576747  0.0022433020767185  0.6307617136570705
 
  0.00000000E+00  0.00000000E+00  0.00000000E+00
  0.00000000E+00  0.00000000E+00  0.00000000E+00
  0.00000000E+00  0.00000000E+00  0.00000000E+00
  0.00000000E+00  0.00000000E+00  0.00000000E+00
  0.00000000E+00  0.00000000E+00  0.00000000E+00
  0.00000000E+00  0.00000000E+00  0.00000000E+00
  0.00000000E+00  0.00000000E+00  0.00000000E+00
  0.00000000E+00  0.00000000E+00  0.00000000E+00
  0.00000000E+00  0.00000000E+00  0.00000000E+00
  0.00000000E+00  0.00000000E+00  0.00000000E+00
  0.00000000E+00  0.00000000E+00  0.00000000E+00
  0.00000000E+00  0.00000000E+00  0.00000000E+00
  0.00000000E+00  0.00000000E+00  0.00000000E+00
  0.00000000E+00  0.00000000E+00  0.00000000E+00
  0.00000000E+00  0.00000000E+00  0.00000000E+00
  0.00000000E+00  0.00000000E+00  0.00000000E+00
  0.00000000E+00  0.00000000E+00  0.00000000E+00
  0.00000000E+00  0.00000000E+00  0.00000000E+00
  0.00000000E+00  0.00000000E+00  0.00000000E+00
  0.00000000E+00  0.00000000E+00  0.00000000E+00
  0.00000000E+00  0.00000000E+00  0.00000000E+00
  0.00000000E+00  0.00000000E+00  0.00000000E+00
  0.00000000E+00  0.00000000E+00  0.00000000E+00
  0.00000000E+00  0.00000000E+00  0.00000000E+00
  0.00000000E+00  0.00000000E+00  0.00000000E+00
  0.00000000E+00  0.00000000E+00  0.00000000E+00
  0.00000000E+00  0.00000000E+00  0.00000000E+00
  0.00000000E+00  0.00000000E+00  0.00000000E+00
  0.00000000E+00  0.00000000E+00  0.00000000E+00
  0.00000000E+00  0.00000000E+00  0.00000000E+00
  0.00000000E+00  0.00000000E+00  0.00000000E+00
  0.00000000E+00  0.00000000E+00  0.00000000E+00
  0.00000000E+00  0.00000000E+00  0.00000000E+00
  0.00000000E+00  0.00000000E+00  0.00000000E+00
  0.00000000E+00  0.00000000E+00  0.00000000E+00
  0.00000000E+00  0.00000000E+00  0.00000000E+00
  0.00000000E+00  0.00000000E+00  0.00000000E+00
  0.00000000E+00  0.00000000E+00  0.00000000E+00
  0.00000000E+00  0.00000000E+00  0.00000000E+00
  0.00000000E+00  0.00000000E+00  0.00000000E+00
  0.00000000E+00  0.00000000E+00  0.00000000E+00
  0.00000000E+00  0.00000000E+00  0.00000000E+00
  0.00000000E+00  0.00000000E+00  0.00000000E+00
  0.00000000E+00  0.00000000E+00  0.00000000E+00
  0.00000000E+00  0.00000000E+00  0.00000000E+00
  0.00000000E+00  0.00000000E+00  0.00000000E+00
  0.00000000E+00  0.00000000E+00  0.00000000E+00
  0.00000000E+00  0.00000000E+00  0.00000000E+00
  0.00000000E+00  0.00000000E+00  0.00000000E+00
  0.00000000E+00  0.00000000E+00  0.00000000E+00
