V132 Bi144 O540
1.0
       21.9216403961         0.0000000000         0.0000000000
       -0.0006492870        24.6265792761         0.0000000000
        0.0032453763         0.3881813553        38.3797087400
   Bi    V    O
  132  132  528
Cartesian
     0.895861400         7.008742638         2.910985478
     4.549143517        19.322032276         2.910985478
     8.203075002         7.008742638         2.910985478
    11.856356873        19.322032276         2.910985478
    15.510288685         7.008742638         2.910985478
    19.163569903        19.322032276         2.910985478
     4.561233665         0.857484811         1.387318133
     8.214515536        13.170774816         1.387318133
    11.868446694         0.857484811         1.387318133
    15.521729219        13.170774816         1.387318133
    19.175661031         0.857484811         1.387318133
     0.907302261        13.170774816         1.387318133
     2.741142666         9.777874295         2.050709418
     6.394424864        22.091163933         2.050709418
    10.048356023         9.777874295         2.050709418
    13.701638548        22.091163933         2.050709418
    17.355569053         9.777874295         2.050709418
    21.008851577        22.091163933         2.050709418
    19.232405682         5.680963266         6.524774740
     0.964047402        17.994252537         6.524774740
     4.617978642         5.680963266         6.524774740
     8.271260840        17.994252537         6.524774740
    11.925192652         5.680963266         6.524774740
    15.578473870        17.994252537         6.524774740
     2.596182782         3.503047765         4.039251348
     6.249464817        15.816337403         4.039251348
     9.903395975         3.503047765         4.039251348
    13.556677847        15.816337403         4.039251348
    17.210609658         3.503047765         4.039251348
    20.863892183        15.816337403         4.039251348
     0.947537355        24.624122196         4.616823127
     4.601468840        12.310833291         4.616823127
     8.254750711        24.624122196         4.616823127
    11.908682523        12.310833291         4.616823127
    15.561963741        24.624122196         4.616823127
    19.215895553        12.310833291         4.616823127
    21.008765414         8.977398627         5.615820221
     2.740407216        21.290688265         5.615820221
     6.394338701         8.977398627         5.615820221
    10.047620573        21.290688265         5.615820221
    13.701552384         8.977398627         5.615820221
    17.354833602        21.290688265         5.615820221
    15.543220866         4.577781587        10.024740303
    19.196502084        16.891070858        10.024740303
     0.928793663         4.577781587        10.024740303
     4.582075697        16.891070858        10.024740303
     8.236007183         4.577781587        10.024740303
    11.889289054        16.891070858        10.024740303
    21.000682756         2.232220071         7.433775584
     2.732324558        14.545509343         7.433775584
     6.386256043         2.232220071         7.433775584
    10.039537914        14.545509343         7.433775584
    13.693469726         2.232220071         7.433775584
    17.346750944        14.545509343         7.433775584
    19.146782012        23.572085863         8.264313157
     0.879072366        11.258795491         8.264313157
     4.532354319        23.572085863         8.264313157
     8.186285804        11.258795491         8.264313157
    11.839567676        23.572085863         8.264313157
    15.493499488        11.258795491         8.264313157
    17.359077755         7.928980332         9.182523342
    21.012358973        20.242269236         9.182523342
     2.744650389         7.928980332         9.182523342
     6.397932260        20.242269236         9.182523342
    10.051864072         7.928980332         9.182523342
    13.705145943        20.242269236         9.182523342
    11.883400478         3.576465204        13.500609910
    15.536683003        15.889755576        13.500609910
    19.190614815         3.576465204        13.500609910
     0.922255882        15.889755576        13.500609910
     4.576187122         3.576465204        13.500609910
     8.229469320        15.889755576        13.500609910
    17.340862368         1.230903511        10.909645762
    20.994144893        13.544192599        10.909645762
     2.726435982         1.230903511        10.909645762
     6.379718180        13.544192599        10.909645762
    10.033649339         1.230903511        10.909645762
    13.686931863        13.544192599        10.909645762
    15.524356192        22.506283876        11.751864439
    19.178288004        10.192994238        11.751864439
     0.909929234        22.506283876        11.751864439
     4.563860638        10.192994238        11.751864439
     8.217142509        22.506283876        11.751864439
    11.871073667        10.192994238        11.751864439
    13.736653242         6.863179073        12.670074052
    17.389934460        19.176468711        12.670074052
    21.043866271         6.863179073        12.670074052
     2.775507747        19.176468711        12.670074052
     6.429438905         6.863179073        12.670074052
    10.082721430        19.176468711        12.670074052
     8.366259893         2.305637342        16.895135575
    12.019541764        14.618927531        16.895135575
    15.673473576         2.305637342        16.895135575
    19.326756101        14.618927531        16.895135575
     1.059046618         2.305637342        16.895135575
     4.712328734        14.618927531        16.895135575
    13.651028266        24.754300564        14.409611897
    17.304958771        12.441011660        14.409611897
    20.958241295        24.754300564        14.409611897
     2.690532384        12.441011660        14.409611897
     6.343814582        24.754300564        14.409611897
     9.997745741        12.441011660        14.409611897
    11.874669840        21.457866298        15.318565845
    15.528600345         9.144576660        15.318565845
    19.181882869        21.457866298        15.318565845
     0.914173713         9.144576660        15.318565845
     4.567455830        21.457866298        15.318565845
     8.221387315         9.144576660        15.318565845
    10.014256523         5.811142001        16.317563510
    13.667538394        18.124430905        16.317563510
    17.321470206         5.811142001        16.317563510
    20.974751424        18.124430905        16.317563510
     2.707042840         5.811142001        16.317563510
     6.360324711        18.124430905        16.317563510
    10.065931579        23.426522296        18.023401445
    13.719862738        11.113231924        18.023401445
    17.373145262        23.426522296        18.023401445
    21.027077074        11.113231924        18.023401445
     2.758718549        23.426522296        18.023401445
     6.412649708        11.113231924        18.023401445
     8.220651211        20.657390626        18.883676219
    11.874582370         8.344100254        18.883676219
    15.527864894        20.657390626        18.883676219
    19.181796706         8.344100254        18.883676219
     0.913438018        20.657390626        18.883676219
     4.567369340         8.344100254        18.883676219
     6.401209827         4.951200826        19.547066788
    10.054492351        17.264490097        19.547066788
    13.708423510         4.951200826        19.547066788
    17.361706035        17.264490097        19.547066788
    21.015636540         4.951200826        19.547066788
     2.747278668        17.264490097        19.547066788
     0.922033871         1.208539678         1.203349340
     4.575315906        13.521829866         1.203349340
     8.229247064         1.208539678         1.203349340
    11.882528936        13.521829866         1.203349340
    15.536460747         1.208539678         1.203349340
    19.189743272        13.521829866         1.203349340
     6.397463331        10.117748055         2.124935464
    10.050745855        22.431036960         2.124935464
    13.704677014        10.117748055         2.124935464
    17.357959538        22.431036960         2.124935464
    21.011890043        10.117748055         2.124935464
     2.743532172        22.431036960         2.124935464
     4.529974056         6.661078240         3.036167441
     8.183256254        18.974367878         3.036167441
    11.837186759         6.661078240         3.036167441
    15.490469284        18.974367878         3.036167441
    19.144401095         6.661078240         3.036167441
     0.876042571        18.974367878         3.036167441
    19.221832800         0.058191985         4.766226007
     0.953473867        12.371482205         4.766226007
     4.607405434         0.058191985         4.766226007
     8.260687305        12.371482205         4.766226007
    11.914618464         0.058191985         4.766226007
    15.567900988        12.371482205         4.766226007
     2.733866496         9.037651746         5.669273062
     6.387148694        21.350941384         5.669273062
    10.041079853         9.037651746         5.669273062
    13.694361724        21.350941384         5.669273062
    17.348293536         9.037651746         5.669273062
    21.001576061        21.350941384         5.669273062
     0.914014014         5.690975083         6.528358851
     4.567296131        18.004264354         6.528358851
     8.221227289         5.690975083         6.528358851
    11.874509160        18.004264354         6.528358851
    15.528440972         5.690975083         6.528358851
    19.181723497        18.004264354         6.528358851
    20.889027210         3.346276519         3.898847922
     2.620669502        15.659566524         3.898847922
     6.274601151         3.346276519         3.898847922
     9.927883022        15.659566524         3.898847922
    13.581814181         3.346276519         3.898847922
    17.235096705        15.659566524         3.898847922
    15.528137303        23.623981289         8.275853000
    19.182067808        11.310691651         8.275853000
     0.913709855        23.623981289         8.275853000
     4.567641095        11.310691651         8.275853000
     8.220923620        23.623981289         8.275853000
    11.874854778        11.310691651         8.275853000
    20.999729951         7.925370703         9.169300391
     2.731371753        20.238659607         9.169300391
     6.385303238         7.925370703         9.169300391
    10.038585110        20.238659607         9.169300391
    13.692516922         7.925370703         9.169300391
    17.345798140        20.238659607         9.169300391
    19.190453557         4.564362620        10.042791825
     0.922094705        16.877652258        10.042791825
     4.576026191         4.564362620        10.042791825
     8.229308062        16.877652258        10.042791825
    11.883239220         4.564362620        10.042791825
    15.536521745        16.877652258        10.042791825
    17.332573124         2.297714222         7.390631852
    20.985855648        14.611003310         7.390631852
     2.718146411         2.297714222         7.390631852
     6.371428282        14.611003310         7.390631852
    10.025360094         2.297714222         7.390631852
    13.678641312        14.611003310         7.390631852
    11.883703996        22.509893488        11.765085675
    15.537635808        10.196603850        11.765085675
    19.190917026        22.509893488        11.765085675
     0.923208278        10.196603850        11.765085675
     4.576490313        22.509893488        11.765085675
     8.230421471        10.196603850        11.765085675
    17.355297951         6.811282902        12.658533065
    21.008579169        19.124573274        12.658533065
     2.740870748         6.811282902        12.658533065
     6.394153109        19.124573274        12.658533065
    10.048084268         6.811282902        12.658533065
    13.701366139        19.124573274        12.658533065
    15.551510111         3.510970521        13.543755358
    19.204791329        15.824260159        13.543755358
     0.937082826         3.510970521        13.543755358
     4.590364942        15.824260159        13.543755358
     8.244296427         3.510970521        13.543755358
    11.897578299        15.824260159        13.543755358
    13.693630984         1.244322294        10.891594240
    17.346912202        13.557611199        10.891594240
    21.000844014         1.244322294        10.891594240
     2.732485816        13.557611199        10.891594240
     6.386417301         1.244322294        10.891594240
    10.039699172        13.557611199        10.891594240
     8.227926728        21.397613185        15.265113575
    11.881857887         9.084322813        15.265113575
    15.535140411        21.397613185        15.265113575
    19.189072223         9.084322813        15.265113575
     0.920713535        21.397613185        15.265113575
     4.574644857         9.084322813        15.265113575
    13.662251741         5.750493079        16.168159773
    17.315532959        18.063782717        16.168159773
    20.969464770         5.750493079        16.168159773
     2.701106736        18.063782717        16.168159773
     6.355038057         5.750493079        16.168159773
    10.008319929        18.063782717        16.168159773
    11.995054717         2.462408218        17.035538716
    15.648337242        14.775698406        17.035538716
    19.302269054         2.462408218        17.035538716
     1.033910366        14.775698406        17.035538716
     4.687841687         2.462408218        17.035538716
     8.341123559        14.775698406        17.035538716
    10.047779945        24.744288741        14.406027214
    13.701711757        12.430999837        14.406027214
    17.354992975        24.744288741        14.406027214
    21.008924787        12.430999837        14.406027214
     2.740566425        24.744288741        14.406027214
     6.394498074        12.430999837        14.406027214
     4.564329894        20.317516143        18.809451316
     8.218261379         8.004226505        18.809451316
    11.871543904        20.317516143        18.809451316
    15.525474409         8.004226505        18.809451316
    19.178756934        20.317516143        18.809451316
     0.911047696         8.004226505        18.809451316
    10.040408150         4.600145072        19.731038584
    13.693690675        16.913435078        19.731038584
    17.347621180         4.600145072        19.731038584
    21.000903705        16.913435078        19.731038584
     2.733194467         4.600145072        19.731038584
     6.386476339        16.913435078        19.731038584
     6.431819822        23.774185220        17.898218910
    10.085750980        11.460895582        17.898218910
    13.739032852        23.774185220        17.898218910
    17.392964663        11.460895582        17.898218910
    21.046247188        23.774185220        17.898218910
     2.778537624        11.460895582        17.898218910
     1.274709737         1.584583871         2.894211872
     4.927991690        13.897872958         2.894211872
     8.581923502         1.584583871         2.894211872
    12.235204720        13.897872958         2.894211872
    15.889136532         1.584583871         2.894211872
    19.542419056        13.897872958         2.894211872
     5.964347465         9.506350486         0.693029545
     9.617629336        21.819639390         0.693029545
    13.271560495         9.506350486         0.693029545
    16.924843019        21.819639390         0.693029545
    20.578774831         9.506350486         0.693029545
     2.310415980        21.819639390         0.693029545
     4.258937519         8.093272243         2.214530382
     7.912220044        20.406561147         2.214530382
    11.566150549         8.093272243         2.214530382
    15.219433074        20.406561147         2.214530382
    18.873364885         8.093272243         2.214530382
     0.605006279        20.406561147         2.214530382
     3.036907754         5.743206443         3.001839296
     6.690190279        18.056496081         3.001839296
    10.344121437         5.743206443         3.001839296
    13.997403962        18.056496081         3.001839296
    17.651334467         5.743206443         3.001839296
    21.304616992        18.056496081         3.001839296
     5.008449546        10.967631895         2.781240594
     8.661731744        23.280921533         2.781240594
    12.315662902        10.967631895         2.781240594
    15.968945427        23.280921533         2.781240594
    19.622875932        10.967631895         2.781240594
     1.354518142        23.280921533         2.781240594
     2.333720761         0.513316580         0.561717041
     5.987003122        12.826606356         0.561717041
     9.640934281         0.513316580         0.561717041
    13.294216805        12.826606356         0.561717041
    16.948147311         0.513316580         0.561717041
    20.601429835        12.826606356         0.561717041
     1.534977317         8.198573358         1.299776917
     5.188259351        20.511862262         1.299776917
     8.842190836         8.198573358         1.299776917
    12.495472708        20.511862262         1.299776917
    16.149404519         8.198573358         1.299776917
    19.802685738        20.511862262         1.299776917
     5.849021687         3.000842883         2.176984286
     9.502303558        15.314131787         2.176984286
    13.156235370         3.000842883         2.176984286
    16.809516588        15.314131787         2.176984286
    20.463448400         3.000842883         2.176984286
     2.195090039        15.314131787         2.176984286
    21.473388734         8.846344048         3.335664630
     3.205029882        21.159634419         3.335664630
     6.858961367         8.846344048         3.335664630
    10.512243239        21.159634419         3.335664630
    14.166174397         8.846344048         3.335664630
    17.819456922        21.159634419         3.335664630
     7.935822917        11.094585669         1.868111045
    11.589104788        23.407875307         1.868111045
    15.243036600        11.094585669         1.868111045
    18.896317818        23.407875307         1.868111045
     0.628609234        11.094585669         1.868111045
     4.281891432        23.407875307         1.868111045
    21.356925091         0.253459671         1.069500414
     3.088566893        12.566749699         1.069500414
     6.742498378         0.253459671         1.069500414
    10.395780250        12.566749699         1.069500414
    14.049712062         0.253459671         1.069500414
    17.702993280        12.566749699         1.069500414
     5.847159269         5.909178808         2.166604832
     9.500441793        18.222468079         2.166604832
    13.154372952         5.909178808         2.166604832
    16.807655476        18.222468079         2.166604832
    20.461585982         5.909178808         2.166604832
     2.193228274        18.222468079         2.166604832
    19.566264247         0.513864833         6.426217686
     1.297905314        12.827154104         6.426217686
     4.951836555         0.513864833         6.426217686
     8.605118753        12.827154104         6.426217686
    12.259049911         0.513864833         6.426217686
    15.912332436        12.827154104         6.426217686
     2.299986059         8.593324351         4.007845909
     5.953268094        20.906613255         4.007845909
     9.607199253         8.593324351         4.007845909
    13.260481777        20.906613255         4.007845909
    16.914413589         8.593324351         4.007845909
    20.567694807        20.906613255         4.007845909
     0.565577386         7.052368280         5.541590743
     4.218859584        19.365658652         5.541590743
     7.872791069         7.052368280         5.541590743
    11.526072940        19.365658652         5.541590743
    15.180004752         7.052368280         5.541590743
    18.833285970        19.365658652         5.541590743
    21.278370320         2.029458790         4.932338154
     3.010012122        14.342748061         4.932338154
     6.663943607         2.029458790         4.932338154
    10.317225479        14.342748061         4.932338154
    13.971157290         2.029458790         4.932338154
    17.624438508        14.342748061         4.932338154
     0.389367941         4.302289548         3.798137369
     4.042649935        16.615579920         3.798137369
     7.696581093         4.302289548         3.798137369
    11.349863618        16.615579920         3.798137369
    15.003795430         4.302289548         3.798137369
    18.657076648        16.615579920         3.798137369
    21.398651693         4.723788472         6.609924691
     3.130293168        17.037077743         6.609924691
     6.784224327         4.723788472         6.609924691
    10.437506198        17.037077743         6.609924691
    14.091437357         4.723788472         6.609924691
    17.744719881        17.037077743         6.609924691
     1.316418873         9.804246020         6.330696860
     4.969700990        22.117535658         6.330696860
     8.623632148         9.804246020         6.330696860
    12.276914019        22.117535658         6.330696860
    15.930845831         9.804246020         6.330696860
    19.584128356        22.117535658         6.330696860
    20.600216087        23.896346386         4.111505475
     2.332507176        11.583056748         4.111505475
     5.985789374        23.896346386         4.111505475
     9.639720532        11.583056748         4.111505475
    13.293003057        23.896346386         4.111505475
    16.946933562        11.583056748         4.111505475
    19.667147283         7.047305482         4.705783376
     1.398789412        19.360595854         4.705783376
     5.052720897         7.047305482         4.705783376
     8.706003095        19.360595854         4.705783376
    12.359934253         7.047305482         4.705783376
    16.013216778        19.360595854         4.705783376
     2.335112090         1.928580766         5.691176346
     5.988393962        14.241870588         5.691176346
     9.642325774         1.928580766         5.691176346
    13.295607645        14.241870588         5.691176346
    16.949539457         1.928580766         5.691176346
    20.602820675        14.241870588         5.691176346
    17.781831226         7.739943211         6.728584108
    21.435112444        20.053232849         6.728584108
     3.167403859         7.739943211         6.728584108
     6.820685731        20.053232849         6.728584108
    10.474617543         7.739943211         6.728584108
    14.127899414        20.053232849         6.728584108
     4.163090690        10.009450932         5.495969531
     7.816373215        22.322741304         5.495969531
    11.470304373        10.009450932         5.495969531
    15.123586898        22.322741304         5.495969531
    18.777517403        10.009450932         5.495969531
     0.509159450        22.322741304         5.495969531
    17.809860417        23.683481914         4.852380504
    21.463792229        11.370192276         4.852380504
     3.195433704        23.683481914         4.852380504
     6.849364862        11.370192276         4.852380504
    10.502646734        23.683481914         4.852380504
    14.156577892        11.370192276         4.852380504
    19.496681716         4.149329413         4.593029421
     1.228323436        16.462619051         4.593029421
     4.882254676         4.149329413         4.593029421
     8.535536874        16.462619051         4.593029421
    12.189468686         4.149329413         4.593029421
    15.842749904        16.462619051         4.593029421
     2.320468180         4.892713165         5.786455257
     5.973750378        17.206003170         5.786455257
     9.627681537         4.892713165         5.786455257
    13.280963408        17.206003170         5.786455257
    16.934895220         4.892713165         5.786455257
    20.588177745        17.206003170         5.786455257
    15.936361851        24.038274197         9.931630046
    19.590293663        11.724984559         9.931630046
     1.321935546        24.038274197         9.931630046
     4.975866950        11.724984559         9.931630046
     8.629148821        24.038274197         9.931630046
    12.283080633        11.724984559         9.931630046
    20.592164900         7.441180182         7.549258656
     2.323806702        19.754469087         7.549258656
     5.977738187         7.441180182         7.549258656
     9.631020058        19.754469087         7.549258656
    13.284951870         7.441180182         7.549258656
    16.938233088        19.754469087         7.549258656
    18.797216434         5.890562479         9.009259844
     0.528858236        18.203852851         9.009259844
     4.182789721         5.890562479         9.009259844
     7.836071592        18.203852851         9.009259844
    11.490003404         5.890562479         9.009259844
    15.143284622        18.203852851         9.009259844
    17.720623199         0.993661854         8.480553392
    21.373904417        13.306952042         8.480553392
     3.106195832         0.993661854         8.480553392
     6.759477704        13.306952042         8.480553392
    10.413409515         0.993661854         8.480553392
    14.066691387        13.306952042         8.480553392
    18.740139588         3.288749725         7.331311293
     0.471780981        15.602038630         7.331311293
     4.125712221         3.288749725         7.331311293
     7.778994746        15.602038630         7.331311293
    11.432925251         3.288749725         7.331311293
    15.086207776        15.602038630         7.331311293
    17.746397649         3.583333581        10.161531309
    21.399678867        15.896623953        10.161531309
     3.131970283         3.583333581        10.161531309
     6.785252154        15.896623953        10.161531309
    10.439183966         3.583333581        10.161531309
    14.092465837        15.896623953        10.161531309
    19.571786804         8.690977296         9.839015055
     1.303428035        21.004266200         9.839015055
     4.957359438         8.690977296         9.839015055
     8.610641310        21.004266200         9.839015055
    12.264572468         8.690977296         9.839015055
    15.917854993        21.004266200         9.839015055
    16.942581795        22.852834791         7.606263011
    20.596512300        10.539545887         7.606263011
     2.328154429        22.852834791         7.606263011
     5.982085588        10.539545887         7.606263011
     9.635368112        22.852834791         7.606263011
    13.289299271        10.539545887         7.606263011
    15.985951736         6.087572303         8.164079857
    19.639232954        18.400861941         8.164079857
     1.371524533         6.087572303         8.164079857
     5.024806567        18.400861941         8.164079857
     8.678738053         6.087572303         8.164079857
    12.332019924        18.400861941         8.164079857
    20.572882794         0.800873458         9.242135571
     2.304524922        13.114163004         9.242135571
     5.958456081         0.800873458         9.242135571
     9.611738605        13.114163004         9.242135571
    13.265669764         0.800873458         9.242135571
    16.918952288        13.114163004         9.242135571
    14.118336438         6.626955733        10.244971844
    17.771618963        18.940246105        10.244971844
    21.425549468         6.626955733        10.244971844
     3.157191923        18.940246105        10.244971844
     6.811123409         6.626955733        10.244971844
    10.464405280        18.940246105        10.244971844
     0.504194625         8.926180742         9.038819182
     4.157476619        21.239470380         9.038819182
     7.811408430         8.926180742         9.038819182
    11.464690302        21.239470380         9.038819182
    15.118622114         8.926180742         9.038819182
    18.771903332        21.239470380         9.038819182
    14.113173300        22.613034652         8.366974754
    17.767103805        10.299745014         8.366974754
    21.420386330        22.613034652         8.366974754
     3.152677419        10.299745014         8.366974754
     6.805959617        22.613034652         8.366974754
    10.459890775        10.299745014         8.366974754
    15.926902429         3.089923430         8.048615657
    19.580184954        15.403213618         8.048615657
     1.312475389         3.089923430         8.048615657
     4.965757587        15.403213618         8.048615657
     8.619688746         3.089923430         8.048615657
    12.272970617        15.403213618         8.048615657
    20.602446467         3.803256404         9.356887753
     2.334088759        16.116545308         9.356887753
     5.988020407         3.803256404         9.356887753
     9.641302278        16.116545308         9.356887753
    13.295233437         3.803256404         9.356887753
    16.948515962        16.116545308         9.356887753
    12.291267741        22.994084026        13.385129125
    15.945199553        10.680794388        13.385129125
    19.598482077        22.994084026        13.385129125
     1.330772840        10.680794388        13.385129125
     4.984055038        22.994084026        13.385129125
     8.637986523        10.680794388        13.385129125
    16.947070790         6.396990005        11.002757164
    20.600353314        18.710278909        11.002757164
     2.332644077         6.396990005        11.002757164
     5.985925948        18.710278909        11.002757164
     9.639857760         6.396990005        11.002757164
    13.293138978        18.710278909        11.002757164
    15.163461342         4.815023984        12.453833245
    18.816742560        17.128312888        12.453833245
     0.549034180         4.815023984        12.453833245
     4.202316174        17.128312888        12.453833245
     7.856247659         4.815023984        12.453833245
    11.509529531        17.128312888        12.453833245
    14.086217513        24.544701718        11.925126794
    17.740149325        12.231412814        11.925126794
    21.393430543        24.544701718        11.925126794
     3.125721959        12.231412814        11.925126794
     6.779003830        24.544701718        11.925126794
    10.432935642        12.231412814        11.925126794
    15.137686892         2.225351151        10.772854756
    18.790968110        14.538640972        10.772854756
     0.523259525         2.225351151        10.772854756
     4.176541723        14.538640972        10.772854756
     7.830473209         2.225351151        10.772854756
    11.483755080        14.538640972        10.772854756
    14.143943647         2.519935012        13.603075344
    17.797226171        14.833224833        13.603075344
    21.451156676         2.519935012        13.603075344
     3.182798805        14.833224833        13.603075344
     6.836730617         2.519935012        13.603075344
    10.490012488        14.833224833        13.603075344
    15.940852152         7.582428666        13.328123055
    19.594134676        19.895718304        13.328123055
     1.326425602         7.582428666        13.328123055
     4.979707637        19.895718304        13.328123055
     8.633639122         7.582428666        13.328123055
    12.286921647        19.895718304        13.328123055
    13.311648449        21.744286895        11.095371010
    16.965578954         9.430997991        11.095371010
    20.618861479        21.744286895        11.095371010
     2.351152568         9.430997991        11.095371010
     6.004434766        21.744286895        11.095371010
     9.658365925         9.430997991        11.095371010
    12.311199134         5.007811927        11.692251638
    15.964481659        17.321101932        11.692251638
    19.618413471         5.007811927        11.692251638
     1.350054537        17.321101932        11.692251638
     5.003985778         5.007811927        11.692251638
     8.657267976        17.321101932        11.692251638
    16.897482211        24.347692628        12.770306780
    20.551414023        12.034402990        12.770306780
     2.283055662        24.347692628        12.770306780
     5.936986657        12.034402990        12.770306780
     9.590269182        24.347692628        12.770306780
    13.244200993        12.034402990        12.770306780
    17.746820435         5.487421110        13.719616436
    21.400101653        17.800710748        13.719616436
     3.132393069         5.487421110        13.719616436
     6.785674940        17.800710748        13.719616436
    10.439606752         5.487421110        13.719616436
    14.092888624        17.800710748        13.719616436
    18.770261954         7.822230267        12.567410740
     0.501903225        20.135519905        12.567410740
     4.155834587         7.822230267        12.567410740
     7.809116459        20.135519905        12.567410740
    11.463047617         7.822230267        12.567410740
    15.116330142        20.135519905        12.567410740
    10.457598804        21.509082721        11.895567455
    14.111530615         9.195793817        11.895567455
    17.764811834        21.509082721        11.895567455
    21.418743645         9.195793817        11.895567455
     3.150385447        21.509082721        11.895567455
     6.804316932         9.195793817        11.895567455
    12.281636767         2.005429061        11.577498313
    15.934919292        14.318718149        11.577498313
    19.588849797         2.005429061        11.577498313
     1.320491844        14.318718149        11.577498313
     4.974423411         2.005429061        11.577498313
     8.627705609        14.318718149        11.577498313
    16.957180805         2.718761668        12.885770408
    20.610463330        15.032051306        12.885770408
     2.342753929         2.718761668        12.885770408
     5.996035964        15.032051306        12.885770408
     9.649967122         2.718761668        12.885770408
    13.303248993        15.032051306        12.885770408
     8.661806675        21.841939849        16.926541014
    12.315737833         9.528650211        16.926541014
    15.969020358        21.841939849        16.926541014
    19.622952170         9.528650211        16.926541014
     1.354593482        21.841939849        16.926541014
     5.008524804         9.528650211        16.926541014
    13.317818987         5.294819732        14.508170096
    16.971101512        17.608109370        14.508170096
    20.625032017         5.294819732        14.508170096
     2.356674309        17.608109370        14.508170096
     6.010605304         5.294819732        14.508170096
     9.663887828        17.608109370        14.508170096
    11.605712914         3.779226853        16.002047340
    15.258995439        16.092516858        16.002047340
    18.912927250         3.779226853        16.002047340
     0.644568644        16.092516858        16.002047340
     4.298499884         3.779226853        16.002047340
     7.951782409        16.092516858        16.002047340
    10.396216165        23.382895922        15.392796466
    14.050147977        11.069606284        15.392796466
    17.703429195        23.382895922        15.392796466
    21.357361007        11.069606284        15.392796466
     3.089002809        23.382895922        15.392796466
     6.742934294        11.069606284        15.392796466
    11.485432848         1.084896351        14.324461375
    15.138714066        13.398185714        14.324461375
    18.792645877         1.084896351        14.324461375
     0.524287557        13.398185714        14.324461375
     4.178218838         1.084896351        14.324461375
     7.831501036        13.398185714        14.324461375
    10.573074774         1.506395009        17.136249554
    14.226357299        13.819685014        17.136249554
    17.880287804         1.506395009        17.136249554
    21.533570329        13.819685014        17.136249554
     3.265861418         1.506395009        17.136249554
     6.919143616        13.819685014        17.136249554
    12.283217860         6.538917814        16.822881448
    15.936499079        18.852206718        16.822881448
    19.590430890         6.538917814        16.822881448
     1.322072774        18.852206718        16.822881448
     4.976004177         6.538917814        16.822881448
     8.629286049        18.852206718        16.822881448
     9.645374433        20.631017449        14.603690349
    13.299305591         8.317728544        14.603690349
    16.952588116        20.631017449        14.603690349
    20.606519928         8.317728544        14.603690349
     2.338161076        20.631017449        14.603690349
     5.992092562         8.317728544        14.603690349
     8.627331401         3.880104699        15.243209720
    12.280613272        16.193394337        15.243209720
    15.934545084         3.880104699        15.243209720
    19.587826302        16.193394337        15.243209720
     1.320117799         3.880104699        15.243209720
     4.973399916        16.193394337        15.243209720
    13.216285358        23.387958723        16.228604119
    16.870217169        11.074669085        16.228604119
    20.523499694        23.387958723        16.228604119
     2.255790293        11.074669085        16.228604119
     5.909072328        23.387958723        16.228604119
     9.563003486        11.074669085        16.228604119
     6.772300595         4.503695650        17.384888622
    10.425582467        16.816984921        17.384888622
    14.079514278         4.503695650        17.384888622
    17.732795497        16.816984921        17.384888622
    21.386727308         4.503695650        17.384888622
     3.118369110        16.816984921        17.384888622
    15.073573530         6.751783017        16.082006134
    18.726856055        19.065072655        16.082006134
     0.459147062         6.751783017        16.082006134
     4.112429015        19.065072655        16.082006134
     7.766360501         6.751783017        16.082006134
    11.419643025        19.065072655        16.082006134
     6.798702861        20.425813264        15.438417107
    10.452634019         8.112523626        15.438417107
    14.105916544        20.425813264        15.438417107
    17.759847049         8.112523626        15.438417107
    21.413129574        20.425813264        15.438417107
     3.145420663         8.112523626        15.438417107
     8.641974984         0.915972300        15.147930809
    12.295257509        13.229261755        15.147930809
    15.949189321         0.915972300        15.147930809
    19.602470539        13.229261755        15.147930809
     1.334761791         0.915972300        15.147930809
     4.988043826        13.229261755        15.147930809
    13.387401518         1.659355872        16.341356931
    17.040684043        13.972645877        16.341356931
    20.694614548         1.659355872        16.341356931
     2.426256677        13.972645877        16.341356931
     6.080187835         1.659355872        16.341356931
     9.733470360        13.972645877        16.341356931
     4.997446739        20.928913701        20.241356091
     8.651377898         8.615624063        20.241356091
    12.304660423        20.928913701        20.241356091
    15.958592234         8.615624063        20.241356091
    19.611873452        20.928913701        20.241356091
     1.344164705         8.615624063        20.241356091
     9.687733020         4.224100872        18.040175337
    13.341014891        16.537390510        18.040175337
    16.994946703         4.224100872        18.040175337
    20.648227921        16.537390510        18.040175337
     2.380519336         4.224100872        18.040175337
     6.033801208        16.537390510        18.040175337
     6.702856032        22.341993419        18.719855970
    10.356787190        10.028703047        18.719855970
    14.010069062        22.341993419        18.719855970
    17.664000873        10.028703047        18.719855970
    21.317283398        22.341993419        18.719855970
     3.049573834        10.028703047        18.719855970
     7.924885797        24.692057014        17.932546770
    11.578816955        12.378768110        17.932546770
    15.232099480        24.692057014        17.932546770
    18.886031292        12.378768110        17.932546770
     0.617672359        24.692057014        17.932546770
     4.271603599        12.378768110        17.932546770
     8.628721587         5.295368201        20.372669418
    12.282004112        17.608658573        20.372669418
    15.935935924         5.295368201        20.372669418
    19.589217142        17.608658573        20.372669418
     1.321508394         5.295368201        20.372669418
     4.974790429        17.608658573        20.372669418
     5.953343679        19.467631574        18.153146616
     9.607275491         7.154342670        18.153146616
    13.260558015        19.467631574        18.153146616
    16.914488520         7.154342670        18.153146616
    20.567771045        19.467631574        18.153146616
     2.300061807         7.154342670        18.153146616
     5.113421804         2.807842762        18.757401351
     8.766703676        15.121133134        18.757401351
    12.420634834         2.807842762        18.757401351
    16.073917359        15.121133134        18.757401351
    19.727849171         2.807842762        18.757401351
     1.459490483        15.121133134        18.757401351
     9.426817051        22.236692299        19.634609006
    13.080748210         9.923401927        19.634609006
    16.734030734        22.236692299        19.634609006
    20.387962546         9.923401927        19.634609006
     2.119603531        22.236692299        19.634609006
     5.773535180         9.923401927        19.634609006
    11.527158143         5.555225598        19.864886581
    15.180440668        17.868515236        19.864886581
    18.834371173         5.555225598        19.864886581
     0.566013505        17.868515236        19.864886581
     4.219944786         5.555225598        19.864886581
     7.873226984        17.868515236        19.864886581
     3.025970634        19.340679260        19.066275449
     6.679901793         7.027388888        19.066275449
    10.333184317        19.340679260        19.066275449
    13.987114822         7.027388888        19.066275449
    17.640397347        19.340679260        19.066275449
    21.294329159         7.027388888        19.066275449
     5.114634282        24.526085017        18.767781376
     8.768565441        12.212796113        18.767781376
    12.421847966        24.526085017        18.767781376
    16.075778471        12.212796113        18.767781376
    19.729060995        24.526085017        18.767781376
     1.461352084        12.212796113        18.767781376
     4.190141916         1.304988912         3.549498873
     7.843424114        13.618278550         3.549498873
    11.497355926         1.304988912         3.549498873
    15.150637144        13.618278550         3.549498873
    18.804568956         1.304988912         3.549498873
     0.536210676        13.618278550         3.549498873
    15.137262799         0.321263765         7.214770201
    18.790545324        12.634552715         7.214770201
     0.522836249         0.321263765         7.214770201
     4.176118284        12.634552715         7.214770201
     7.830049769         0.321263765         7.214770201
    11.483332294        12.634552715         7.214770201
    18.765096202        23.808308469        10.689415365
     0.497387740        11.495018097        10.689415365
     4.150669816        23.808308469        10.689415365
     7.804601301        11.495018097        10.689415365
    11.457883172        23.808308469        10.689415365
    15.111814984        11.495018097        10.689415365
     7.794390345        22.695321713        14.205801957
    11.448321503        10.382031341        14.205801957
    15.101604028        22.695321713        14.205801957
    18.755535840        10.382031341        14.205801957
     0.487176948        22.695321713        14.205801957
     4.141108147        10.382031341        14.205801957
    11.410046520        21.588920146        17.598721721
    15.063978332         9.275630508        17.598721721
    18.717259550        21.588920146        17.598721721
     0.449550761         9.275630508        17.598721721
     4.102832837        21.588920146        17.598721721
     7.756763995         9.275630508        17.598721721
