Bi V O                                  
   1.00000000000000     
     5.1667509079000000    0.0000000000000000    0.0000000000000000
     0.0000000000000000    5.1672091483999996    0.0000000000000000
     0.0000000000000000    0.0000000000000000   35.7587528229000000
   Bi   V    O 
     8     8    32
Direct
  0.0000000000193552  0.2500000893906176  0.2065937692750977
  0.0000000000193552  0.2500000893906176  0.5370003406144759
  0.0000000000193552  0.7499998807286516  0.1206709646872925
  0.0000000000193552  0.7499998807286516  0.4510775360266707
  0.4999997913679195  0.7500002979751628  0.0444598238989830
  0.4999997913679195  0.7500002979751628  0.3708745717904903
  0.5000001788454682  0.2499997168490822  0.2867967384051909
  0.5000001788454682  0.2499997168490822  0.6132114863246579
  0.0000000000193552  0.2499998807673549  0.0426423372691852
  0.0000000000193552  0.2499998807673549  0.3707366067528954
  0.0000000000193552  0.7500001191552315  0.2869346936829272
  0.0000000000193552  0.7500001191552315  0.6150289631666443
  0.4999997019500242  0.7499999999419416  0.2064010232769737
  0.4999997019500242  0.7499999999419416  0.5368978126001803
  0.5000002980693310  0.2499999999806448  0.1207734829137767
  0.5000002980693310  0.2499999999806448  0.4512702722369830
  0.1616259394705432  0.5075431353021450  0.0682495853582665
  0.1425680229566342  0.5030874161390100  0.3963991439907552
  0.8574319919657083  0.4969126137804310  0.2612721515232018
  0.8383740754517992  0.4924568946172960  0.5894217101556906
  0.3558965787736758  0.4957067753150136  0.2319192900393915
  0.3510420201866168  0.4916968474777145  0.5619800926504005
  0.6489580096387062  0.5083031524448716  0.0956912224671533
  0.6441034510516463  0.5042932246075731  0.4257520251061221
  0.2576287947647110  0.3820422789028148  0.1474006442522095
  0.2537756888327956  0.3862029305853192  0.4773225507977999
  0.7462243111865595  0.6137970695307976  0.1803487447161570
  0.7423712052546442  0.6179577212133024  0.5102706512617476
  0.2472793769670494  0.6131208584258303  0.3129960040466996
  0.2242871248041800  0.5993879822043739  0.6414218407847040
  0.7757129050211428  0.4006120179117430  0.0162494608815937
  0.7527206528582735  0.3868791416902865  0.3446752976195983
  0.6441031529919929  0.0042932945099146  0.2319192704357946
  0.6489577115790528  0.0083032223472135  0.5619800730747705
  0.3510422882467580 -0.0083032223472135  0.0956912420707431
  0.3558968468338170 -0.0042932945099146  0.4257520446817521
  0.1425679037327715  0.0030880964288684  0.2612721123160150
  0.1616258202466804  0.0075438155920033  0.5894216709485108
  0.7527217852914216  0.8868789628316449  0.3129961608474657
  0.7757140374542909  0.9006118390531013  0.6414219975854772
  0.2242859921774872  0.0993881535154177  0.0162493065137898
  0.2472782443403565  0.1131210297368739  0.3446751432518015
  0.7423722780758645  0.1179573709662033  0.1474005168428446
  0.7462253840077798  0.1137967192836988  0.4773224233884351
  0.2537745862056149  0.8862032881864857  0.1803488819133404
  0.2576276921375303  0.8820426365039810  0.5102707884589239
  0.8383741946756620  0.9924561844079968  0.0682496245654462
  0.8574321111895711  0.9969119035711318  0.3963991831979420
 
  0.00000000E+00  0.00000000E+00  0.00000000E+00
  0.00000000E+00  0.00000000E+00  0.00000000E+00
  0.00000000E+00  0.00000000E+00  0.00000000E+00
  0.00000000E+00  0.00000000E+00  0.00000000E+00
  0.00000000E+00  0.00000000E+00  0.00000000E+00
  0.00000000E+00  0.00000000E+00  0.00000000E+00
  0.00000000E+00  0.00000000E+00  0.00000000E+00
  0.00000000E+00  0.00000000E+00  0.00000000E+00
  0.00000000E+00  0.00000000E+00  0.00000000E+00
  0.00000000E+00  0.00000000E+00  0.00000000E+00
  0.00000000E+00  0.00000000E+00  0.00000000E+00
  0.00000000E+00  0.00000000E+00  0.00000000E+00
  0.00000000E+00  0.00000000E+00  0.00000000E+00
  0.00000000E+00  0.00000000E+00  0.00000000E+00
  0.00000000E+00  0.00000000E+00  0.00000000E+00
  0.00000000E+00  0.00000000E+00  0.00000000E+00
  0.00000000E+00  0.00000000E+00  0.00000000E+00
  0.00000000E+00  0.00000000E+00  0.00000000E+00
  0.00000000E+00  0.00000000E+00  0.00000000E+00
  0.00000000E+00  0.00000000E+00  0.00000000E+00
  0.00000000E+00  0.00000000E+00  0.00000000E+00
  0.00000000E+00  0.00000000E+00  0.00000000E+00
  0.00000000E+00  0.00000000E+00  0.00000000E+00
  0.00000000E+00  0.00000000E+00  0.00000000E+00
  0.00000000E+00  0.00000000E+00  0.00000000E+00
  0.00000000E+00  0.00000000E+00  0.00000000E+00
  0.00000000E+00  0.00000000E+00  0.00000000E+00
  0.00000000E+00  0.00000000E+00  0.00000000E+00
  0.00000000E+00  0.00000000E+00  0.00000000E+00
  0.00000000E+00  0.00000000E+00  0.00000000E+00
  0.00000000E+00  0.00000000E+00  0.00000000E+00
  0.00000000E+00  0.00000000E+00  0.00000000E+00
  0.00000000E+00  0.00000000E+00  0.00000000E+00
  0.00000000E+00  0.00000000E+00  0.00000000E+00
  0.00000000E+00  0.00000000E+00  0.00000000E+00
  0.00000000E+00  0.00000000E+00  0.00000000E+00
  0.00000000E+00  0.00000000E+00  0.00000000E+00
  0.00000000E+00  0.00000000E+00  0.00000000E+00
  0.00000000E+00  0.00000000E+00  0.00000000E+00
  0.00000000E+00  0.00000000E+00  0.00000000E+00
  0.00000000E+00  0.00000000E+00  0.00000000E+00
  0.00000000E+00  0.00000000E+00  0.00000000E+00
  0.00000000E+00  0.00000000E+00  0.00000000E+00
  0.00000000E+00  0.00000000E+00  0.00000000E+00
  0.00000000E+00  0.00000000E+00  0.00000000E+00
  0.00000000E+00  0.00000000E+00  0.00000000E+00
  0.00000000E+00  0.00000000E+00  0.00000000E+00
  0.00000000E+00  0.00000000E+00  0.00000000E+00
