V24 Bi24 O96                            
   1.00000000000000     
     7.3072133064000004    0.0000000000000000    0.0000000000000000
     3.6532827364000000   12.3132897774999996    0.0000000000000000
   -40.1861025784000034  -11.9251062034000004   38.3797081991000013
   Bi   V    O 
    24    22    90
Direct
  0.2184208502359817  0.6426573671964718  0.0758469894053633
  0.8123872766099290  0.3715770009517153  0.0168954573531903
  0.7706828801308819  0.1046465938325125  0.0361471764788006
  0.2460970583097540  0.8458388250017113  0.0534321263535303
  0.2539448522784543  0.6260147927909855  0.1700058453028733
  0.7408906894222098  0.3864198316006926  0.1052444468328771
  0.7331693368897675  0.1163015357918188  0.1202933355558183
  0.2444178710632725  0.8707917913606434  0.1463226338235940
  0.2512306907311279  0.6247402440185317  0.2611989570979613
  0.7547493851237603  0.3688695292023074  0.1936902568055898
  0.7431115479274352  0.1229032050778943  0.2153302674580956
  0.2536064507692854  0.8756488375463254  0.2392546369214000
  0.2452505848762376  0.6311304707976921  0.3517642741944073
  0.7487692792688690  0.3752597559814606  0.2842555749020395
  0.7463935642307195  0.1243511774536721  0.3061999240786068
  0.2568884670725696  0.8770968099220962  0.3301242795419030
  0.2591092805777868  0.6135801683993075  0.4402100921671208
  0.7460551177215430  0.3739852072090148  0.3754487016971252
  0.7555821439367320  0.1292082236393545  0.3991318981764069
  0.2668306781102371  0.8836984792081788  0.4251612114441803
  0.1876126933900684  0.6284229990482848  0.5285591136468100
  0.7815791197640164  0.3573426328035280  0.4696075565946385
  0.7539029566902505  0.1541611899982865  0.4920224096464709
  0.2293171348691234  0.8953534211674852  0.5093073515212004
  0.2343602927249285  0.1285145617820203  0.0313537921006257
  0.7423682141989755  0.8753139990453895  0.0553661164940479
  0.7462275714720994  0.6175813434118377  0.0791086659666451
  0.2509982416489254  0.1249970283600019  0.1241860947700535
  0.7480169094712481  0.8770339870173064  0.1477153729880488
  0.7471151222570301  0.6269183030368568  0.1700992221303205
  0.2323041584085654  0.3701450013185056  0.1015861788427159
  0.2472970666596203  0.1274090309665136  0.2156309527842078
  0.7502523330033051  0.8750219994448044  0.2389101089510243
  0.7532621359809819  0.6241059513968947  0.2616692988040346
  0.2444675002878504  0.3730998139901277  0.1925661202119122
  0.2497476669966949  0.1249779855551978  0.3065444370489777
  0.7527029333403794  0.8725909540334886  0.3298235792157934
  0.7555324997121494  0.6269001560098770  0.3528884257880900
  0.2467378640190185  0.3758940186031101  0.2837852331959663
  0.2519830905287516  0.1229659979826957  0.3977391740119497
  0.7490017583510743  0.8750029566400002  0.4212684372299474
  0.7676958415914349  0.6298549686814990  0.4438683681572828
  0.2528848777429698  0.3730816669631472  0.3753553098696804
  0.2576317858010242  0.1246859859546129  0.4900884345059510
  0.7656397072750715  0.8714854232179822  0.5141007768993746
  0.2537724285279002  0.3824186265881664  0.4663458730333529
  0.4883114788345517  0.2017215314923650  0.0754099511206649
  0.5208042252185285  0.7895277690374902  0.0180571854788109
  0.5436162511289619  0.7131609425620495  0.0577005530654663
  0.5746822620605602  0.5421718969956171  0.0782142247712569
  0.6035358786101290  0.9608969101232157  0.0724664294027785
  0.3719331328614657  0.0558623977294301  0.0146357822123636
  0.0470272401474067  0.6986298616846006  0.0338662523500370
  0.9630820453888584  0.2986417242540443  0.0567222726384966
  0.0153609678693613  0.8026109948462259  0.0869121918355776
  0.8796710079135118  0.9481652866547624  0.0486744469154456
  0.0521852173012478  0.0475720380528239  0.0278662974905762
  0.8433839499134668  0.5345747066598984  0.0564518317439024
  0.4965538871391422  0.2038918846416130  0.1674378935979532
  0.4895718286261039  0.7990242947645825  0.1044261708340644
  0.5152074691044624  0.7125811242769844  0.1443885531698101
  0.4741054117871616  0.2892813263293938  0.1285142177108199
  0.3749262848738831  0.4452444356506086  0.0989621181140120
  0.6003890676906468  0.5504283706963976  0.1722244647183538
  0.6093440857761803  0.9559818643199007  0.1649490547006001
  0.3861763117962930  0.0444453901230180  0.1071270602669695
  0.0202632568000676  0.6910791754422601  0.1226112323442139
  0.9849582587563679  0.3002372563014980  0.1482860710119544
 -0.0015354825004637  0.7983737636114309  0.1753161779709244
  0.8815032257714079  0.9515836476726985  0.1431998713420972
  0.1097708564069032  0.0458532489104442  0.1264308817320086
  0.0998668356302342  0.4528803742323477  0.1196733755202723
  0.8750524544139463  0.5433677826616211  0.1507686016298413
  0.5027124850051253  0.2028369441469990  0.2587729489927397
  0.5024351528619007  0.7948192273869231  0.1966992150160896
  0.5105416340732023  0.7057305402811564  0.2347401799328022
  0.4929477212679214  0.2946968315886369  0.2209645016908437
  0.3891037212886923  0.4520879511732072  0.1910205046003617
  0.6109906023004416  0.5474298556055199  0.2647631038383311
  0.6112666521825478  0.9540988597223922  0.2563598165598229
  0.3846765676162948  0.0478854626077307  0.1981844921127248
  0.0073728853769009  0.7004030265298414  0.2127186572273861
  0.9906311005923423  0.2982576798856226  0.2408078549719066
  0.0018104507648312  0.7967173072852954  0.2669372024584601
  0.8877296750294507  0.9530083176316605  0.2355103596133876
  0.1066125869708735  0.0476063163716648  0.2180051706609957
  0.1059168128897206  0.4540411437192243  0.2097101824050565
  0.8877668165098068  0.5449860567194202  0.2437977745103967
  0.4975648771381017  0.2051807436130783  0.3487553469839133
  0.4972875449948772  0.7971630268530022  0.2866816120072599
  0.5070522787320785  0.7053031984113658  0.3244900293091532
  0.4894583659267976  0.2942694897188464  0.3107143670671964
  0.3890093976995587  0.4525701143944779  0.2806914281616698
  0.6108962787113069  0.5479120188267900  0.3544340423996368
  0.6153234323837052  0.9521145263922713  0.3472700538872701
  0.3887333478174518  0.0459011292776102  0.2890947154401708
  0.0093688894076567  0.7017423491143764  0.3046467060281001
  0.9926271046230982  0.2995970024701571  0.3327358897726126
  0.9986943035938252  0.7918514465409444  0.3574705696728767
  0.8933874050291262  0.9523936796283348  0.3274493613390053
  0.1122703169705493  0.0469916783683389  0.3099441873866109
  0.1122331904901903  0.4550139432805800  0.3016567574896041
  0.8940831941102767  0.5459588562807758  0.3357443645949419
  0.5104282013738990  0.2009756762354191  0.4410283911659391
  0.5034461428608605  0.7961080863583879  0.3780166684020432
  0.5258945882128379  0.7107187036706085  0.4169403142891809
  0.4847925308955371  0.2874189057230179  0.4010659938301884
  0.3996109323093529  0.4495715993035994  0.3732300662816433
  0.6250737151261172  0.5547555343493890  0.4464924288859864
  0.6138236882037071  0.9555545988769848  0.4383274867330289
  0.3906559142238198  0.0440181246801018  0.3805054922993987
  0.0150417312436312  0.6997627726985012  0.3971684609880462
  0.9797367331999315  0.3089208535577382  0.4228433226557852
  0.0157256847131338  0.8044496701054836  0.4529708186473425
  0.8902291355930961  0.9541467470895553  0.4190236492679885
  0.1184967662285919  0.0484163483273010  0.4022546746579051
  0.1249475525860508  0.4566322173383789  0.3946859303701595
  0.9001331713697625  0.5471196257676523  0.4257811714797334
  0.4791958047814735  0.2104722019625110  0.5273973475211938
  0.5116885511654505  0.7982784395076366  0.4700446028793308
  0.4563837488710373  0.2868390874379529  0.4877539969345362
  0.4253177379394394  0.4578280730043804  0.4672403142287412
  0.6280668671385340  0.9441375912705726  0.5308187667876353
  0.3964641213898707  0.0391030788767873  0.4729881175972199
  0.0369179446111409  0.7013583047459541  0.4887322633615047
  0.9529727498525932  0.3013701673153984  0.5115882736499636
  0.9640003940392935  0.7707077097770000  0.5362480434645464
  0.9478147746987514  0.9524279579471759  0.5175882415094288
  0.1203289840864876  0.0518347093452374  0.4967801040845535
  0.1566160570865304  0.4654252933401019  0.4890027082560920
  0.0359996309607125  0.2292922602229973  0.0092065125354562
  0.9842743402868716  0.1955502998945138  0.0924837363526571
  0.0013057214061807  0.2081485234590532  0.1879839773271220
  0.9981895742351746  0.2032826627147021  0.2785173585415396
  0.0015355075004693  0.2016262063885666  0.3701383540290764
  0.9846390571306443  0.1973889751537716  0.4585423401644233
 
  0.00000000E+00  0.00000000E+00  0.00000000E+00
  0.00000000E+00  0.00000000E+00  0.00000000E+00
  0.00000000E+00  0.00000000E+00  0.00000000E+00
  0.00000000E+00  0.00000000E+00  0.00000000E+00
  0.00000000E+00  0.00000000E+00  0.00000000E+00
  0.00000000E+00  0.00000000E+00  0.00000000E+00
  0.00000000E+00  0.00000000E+00  0.00000000E+00
  0.00000000E+00  0.00000000E+00  0.00000000E+00
  0.00000000E+00  0.00000000E+00  0.00000000E+00
  0.00000000E+00  0.00000000E+00  0.00000000E+00
  0.00000000E+00  0.00000000E+00  0.00000000E+00
  0.00000000E+00  0.00000000E+00  0.00000000E+00
  0.00000000E+00  0.00000000E+00  0.00000000E+00
  0.00000000E+00  0.00000000E+00  0.00000000E+00
  0.00000000E+00  0.00000000E+00  0.00000000E+00
  0.00000000E+00  0.00000000E+00  0.00000000E+00
  0.00000000E+00  0.00000000E+00  0.00000000E+00
  0.00000000E+00  0.00000000E+00  0.00000000E+00
  0.00000000E+00  0.00000000E+00  0.00000000E+00
  0.00000000E+00  0.00000000E+00  0.00000000E+00
  0.00000000E+00  0.00000000E+00  0.00000000E+00
  0.00000000E+00  0.00000000E+00  0.00000000E+00
  0.00000000E+00  0.00000000E+00  0.00000000E+00
  0.00000000E+00  0.00000000E+00  0.00000000E+00
  0.00000000E+00  0.00000000E+00  0.00000000E+00
  0.00000000E+00  0.00000000E+00  0.00000000E+00
  0.00000000E+00  0.00000000E+00  0.00000000E+00
  0.00000000E+00  0.00000000E+00  0.00000000E+00
  0.00000000E+00  0.00000000E+00  0.00000000E+00
  0.00000000E+00  0.00000000E+00  0.00000000E+00
  0.00000000E+00  0.00000000E+00  0.00000000E+00
  0.00000000E+00  0.00000000E+00  0.00000000E+00
  0.00000000E+00  0.00000000E+00  0.00000000E+00
  0.00000000E+00  0.00000000E+00  0.00000000E+00
  0.00000000E+00  0.00000000E+00  0.00000000E+00
  0.00000000E+00  0.00000000E+00  0.00000000E+00
  0.00000000E+00  0.00000000E+00  0.00000000E+00
  0.00000000E+00  0.00000000E+00  0.00000000E+00
  0.00000000E+00  0.00000000E+00  0.00000000E+00
  0.00000000E+00  0.00000000E+00  0.00000000E+00
  0.00000000E+00  0.00000000E+00  0.00000000E+00
  0.00000000E+00  0.00000000E+00  0.00000000E+00
  0.00000000E+00  0.00000000E+00  0.00000000E+00
  0.00000000E+00  0.00000000E+00  0.00000000E+00
  0.00000000E+00  0.00000000E+00  0.00000000E+00
  0.00000000E+00  0.00000000E+00  0.00000000E+00
  0.00000000E+00  0.00000000E+00  0.00000000E+00
  0.00000000E+00  0.00000000E+00  0.00000000E+00
  0.00000000E+00  0.00000000E+00  0.00000000E+00
  0.00000000E+00  0.00000000E+00  0.00000000E+00
  0.00000000E+00  0.00000000E+00  0.00000000E+00
  0.00000000E+00  0.00000000E+00  0.00000000E+00
  0.00000000E+00  0.00000000E+00  0.00000000E+00
  0.00000000E+00  0.00000000E+00  0.00000000E+00
  0.00000000E+00  0.00000000E+00  0.00000000E+00
  0.00000000E+00  0.00000000E+00  0.00000000E+00
  0.00000000E+00  0.00000000E+00  0.00000000E+00
  0.00000000E+00  0.00000000E+00  0.00000000E+00
  0.00000000E+00  0.00000000E+00  0.00000000E+00
  0.00000000E+00  0.00000000E+00  0.00000000E+00
  0.00000000E+00  0.00000000E+00  0.00000000E+00
  0.00000000E+00  0.00000000E+00  0.00000000E+00
  0.00000000E+00  0.00000000E+00  0.00000000E+00
  0.00000000E+00  0.00000000E+00  0.00000000E+00
  0.00000000E+00  0.00000000E+00  0.00000000E+00
  0.00000000E+00  0.00000000E+00  0.00000000E+00
  0.00000000E+00  0.00000000E+00  0.00000000E+00
  0.00000000E+00  0.00000000E+00  0.00000000E+00
  0.00000000E+00  0.00000000E+00  0.00000000E+00
  0.00000000E+00  0.00000000E+00  0.00000000E+00
  0.00000000E+00  0.00000000E+00  0.00000000E+00
  0.00000000E+00  0.00000000E+00  0.00000000E+00
  0.00000000E+00  0.00000000E+00  0.00000000E+00
  0.00000000E+00  0.00000000E+00  0.00000000E+00
  0.00000000E+00  0.00000000E+00  0.00000000E+00
  0.00000000E+00  0.00000000E+00  0.00000000E+00
  0.00000000E+00  0.00000000E+00  0.00000000E+00
  0.00000000E+00  0.00000000E+00  0.00000000E+00
  0.00000000E+00  0.00000000E+00  0.00000000E+00
  0.00000000E+00  0.00000000E+00  0.00000000E+00
  0.00000000E+00  0.00000000E+00  0.00000000E+00
  0.00000000E+00  0.00000000E+00  0.00000000E+00
  0.00000000E+00  0.00000000E+00  0.00000000E+00
  0.00000000E+00  0.00000000E+00  0.00000000E+00
  0.00000000E+00  0.00000000E+00  0.00000000E+00
  0.00000000E+00  0.00000000E+00  0.00000000E+00
  0.00000000E+00  0.00000000E+00  0.00000000E+00
  0.00000000E+00  0.00000000E+00  0.00000000E+00
  0.00000000E+00  0.00000000E+00  0.00000000E+00
  0.00000000E+00  0.00000000E+00  0.00000000E+00
  0.00000000E+00  0.00000000E+00  0.00000000E+00
  0.00000000E+00  0.00000000E+00  0.00000000E+00
  0.00000000E+00  0.00000000E+00  0.00000000E+00
  0.00000000E+00  0.00000000E+00  0.00000000E+00
  0.00000000E+00  0.00000000E+00  0.00000000E+00
  0.00000000E+00  0.00000000E+00  0.00000000E+00
  0.00000000E+00  0.00000000E+00  0.00000000E+00
  0.00000000E+00  0.00000000E+00  0.00000000E+00
  0.00000000E+00  0.00000000E+00  0.00000000E+00
  0.00000000E+00  0.00000000E+00  0.00000000E+00
  0.00000000E+00  0.00000000E+00  0.00000000E+00
  0.00000000E+00  0.00000000E+00  0.00000000E+00
  0.00000000E+00  0.00000000E+00  0.00000000E+00
  0.00000000E+00  0.00000000E+00  0.00000000E+00
  0.00000000E+00  0.00000000E+00  0.00000000E+00
  0.00000000E+00  0.00000000E+00  0.00000000E+00
  0.00000000E+00  0.00000000E+00  0.00000000E+00
  0.00000000E+00  0.00000000E+00  0.00000000E+00
  0.00000000E+00  0.00000000E+00  0.00000000E+00
  0.00000000E+00  0.00000000E+00  0.00000000E+00
  0.00000000E+00  0.00000000E+00  0.00000000E+00
  0.00000000E+00  0.00000000E+00  0.00000000E+00
  0.00000000E+00  0.00000000E+00  0.00000000E+00
  0.00000000E+00  0.00000000E+00  0.00000000E+00
  0.00000000E+00  0.00000000E+00  0.00000000E+00
  0.00000000E+00  0.00000000E+00  0.00000000E+00
  0.00000000E+00  0.00000000E+00  0.00000000E+00
  0.00000000E+00  0.00000000E+00  0.00000000E+00
  0.00000000E+00  0.00000000E+00  0.00000000E+00
  0.00000000E+00  0.00000000E+00  0.00000000E+00
  0.00000000E+00  0.00000000E+00  0.00000000E+00
  0.00000000E+00  0.00000000E+00  0.00000000E+00
  0.00000000E+00  0.00000000E+00  0.00000000E+00
  0.00000000E+00  0.00000000E+00  0.00000000E+00
  0.00000000E+00  0.00000000E+00  0.00000000E+00
  0.00000000E+00  0.00000000E+00  0.00000000E+00
  0.00000000E+00  0.00000000E+00  0.00000000E+00
  0.00000000E+00  0.00000000E+00  0.00000000E+00
  0.00000000E+00  0.00000000E+00  0.00000000E+00
  0.00000000E+00  0.00000000E+00  0.00000000E+00
  0.00000000E+00  0.00000000E+00  0.00000000E+00
  0.00000000E+00  0.00000000E+00  0.00000000E+00
  0.00000000E+00  0.00000000E+00  0.00000000E+00
  0.00000000E+00  0.00000000E+00  0.00000000E+00
  0.00000000E+00  0.00000000E+00  0.00000000E+00
  0.00000000E+00  0.00000000E+00  0.00000000E+00
