V10 Bi10 O40                            
   1.00000000000000     
     5.1572672701015767    0.0000000000000000    0.3129035380183535
     2.5735474172194852    6.4214505646392164    0.2402826675541639
     0.0000000000000000    0.0000000000000000   42.6574184626183310
   Bi   V    O 
    10    10    40
Direct
  0.3496499570532446  0.3064198820047231  0.9819049990320950
  0.5250782951898896  0.0274136116138898  0.9061904132894429
  0.2524773805488981  0.6135309630304046  0.8731475074823070
  0.4181589620117064  0.3699587163572285  0.7920296491806091
  0.1412692035660192  0.9558490613275369  0.7636094649197323
  0.3031752408784307  0.7108176053391274  0.6808349795247106
  0.0262854824327364  0.2967079503094358  0.6524147952638337
  0.1919670638955447  0.0531357036362598  0.5712969369621359
  0.9193661492545604  0.6392530550527744  0.5382540311549999
  0.0947944873912054  0.3602467846619412  0.4625394454123479
  0.8120565793551388  0.4576892151009945  0.9302071120816724
  0.0554423781123813  0.8883060153778629  0.9638918346896721
  0.6986487566059546  0.7881373005236187  0.8193579959500872
  0.9697164166494376  0.2076801848260571  0.8479528123325271
  0.5856717197811924  0.1240780801140002  0.7080905088960959
  0.8587727246632576  0.5425885865526712  0.7363539355483469
  0.4747280277950053  0.4589864818406143  0.5964916321119158
  0.7457956878384883  0.8785293661430456  0.6250864484943557
  0.3890020663320687  0.7783606512888014  0.4805526097547779
  0.6323878650893041  0.2089774515656768  0.5142373323627705
  0.6415765637062445  0.4787207920180921  0.9661216880551545
  0.2511437232558639  0.8579680342186226  0.9280215219181311
  0.8365549063293415  0.6818059941123435  0.9123740306050175
  0.0753780476271889  0.6533433268840192  0.9804062559554314
  0.1499628433219284  0.0282164123736583  0.9893264844355769
  0.6357653537568860  0.3641224866921605  0.9058822866077686
  0.6933712877813057  0.0416173066966098  0.9553985728764074
  0.1707637563516534  0.2972256560103001  0.9374984999314703
  0.5198655948141506  0.8294267646698120  0.8555317741789145
  0.1511674953353136  0.1643408892305890  0.8113352910742205
  0.7344025749324121  0.0057358588241052  0.8007420626175260
  0.9454703299047267  0.9879049544276901  0.8657306950494690
  0.1585819465482734  0.2972155945447170  0.8723225048008600
  0.5055383634365977  0.7039842204104080  0.7949024395970128
  0.6259724034961230  0.3834400781012095  0.8406123238933214
  0.0417855661326909  0.6123518919398672  0.8266953938931308
  0.4037057825145703  0.1686302693771553  0.7445614531677862
  0.0407386610965480  0.4980363847895133  0.6998829904433250
  0.6224204276623851  0.3409444310735097  0.6895281507163210
  0.8220240159487261  0.3257222230931518  0.7549162928947902
  0.0523682901895436  0.6271366451168363  0.7608224951955086
  0.3920761467549004  0.0395300365498328  0.6836219492489343
  0.5204415874726557  0.7192757579538384  0.7292769743621126
  0.9240028494717883  0.9473909237128307  0.7151674700823303
  0.2932769482758047  0.5023257649360725  0.6331091525368907
  0.9245788487969606  0.8372398894968495  0.5889126694321968
  0.4989741137063846  0.6787616997389714  0.5787137485616423
  0.7100418686786991  0.6609307953425564  0.6437023809935852
  0.9389060735078392  0.9626824612562682  0.6495420048474301
  0.2858624903961636  0.3694510871219521  0.5721219396435828
  0.4026588708117531  0.0543147897268090  0.6177490505513120
  0.8184720334483210  0.2832266035654596  0.6038321205511286
  0.1933007203552544  0.8086986199480389  0.5164229216929801
  0.8028678799048738  0.1879458621485693  0.4783227555559566
  0.3690663959839152  0.0133233272826422  0.4640381876556799
  0.6078895372817698  0.9848606600543179  0.5320704130060937
  0.8086790831875509  0.3025441949745086  0.5385621578366814
  0.2944815936225157  0.6384502692930250  0.4551179600088659
  0.2736806805927835  0.3694410256563690  0.5069459445129726
  0.7510731491631312  0.6250493749700664  0.4890458715680355
 
  0.00000000E+00  0.00000000E+00  0.00000000E+00
  0.00000000E+00  0.00000000E+00  0.00000000E+00
  0.00000000E+00  0.00000000E+00  0.00000000E+00
  0.00000000E+00  0.00000000E+00  0.00000000E+00
  0.00000000E+00  0.00000000E+00  0.00000000E+00
  0.00000000E+00  0.00000000E+00  0.00000000E+00
  0.00000000E+00  0.00000000E+00  0.00000000E+00
  0.00000000E+00  0.00000000E+00  0.00000000E+00
  0.00000000E+00  0.00000000E+00  0.00000000E+00
  0.00000000E+00  0.00000000E+00  0.00000000E+00
  0.00000000E+00  0.00000000E+00  0.00000000E+00
  0.00000000E+00  0.00000000E+00  0.00000000E+00
  0.00000000E+00  0.00000000E+00  0.00000000E+00
  0.00000000E+00  0.00000000E+00  0.00000000E+00
  0.00000000E+00  0.00000000E+00  0.00000000E+00
  0.00000000E+00  0.00000000E+00  0.00000000E+00
  0.00000000E+00  0.00000000E+00  0.00000000E+00
  0.00000000E+00  0.00000000E+00  0.00000000E+00
  0.00000000E+00  0.00000000E+00  0.00000000E+00
  0.00000000E+00  0.00000000E+00  0.00000000E+00
  0.00000000E+00  0.00000000E+00  0.00000000E+00
  0.00000000E+00  0.00000000E+00  0.00000000E+00
  0.00000000E+00  0.00000000E+00  0.00000000E+00
  0.00000000E+00  0.00000000E+00  0.00000000E+00
  0.00000000E+00  0.00000000E+00  0.00000000E+00
  0.00000000E+00  0.00000000E+00  0.00000000E+00
  0.00000000E+00  0.00000000E+00  0.00000000E+00
  0.00000000E+00  0.00000000E+00  0.00000000E+00
  0.00000000E+00  0.00000000E+00  0.00000000E+00
  0.00000000E+00  0.00000000E+00  0.00000000E+00
  0.00000000E+00  0.00000000E+00  0.00000000E+00
  0.00000000E+00  0.00000000E+00  0.00000000E+00
  0.00000000E+00  0.00000000E+00  0.00000000E+00
  0.00000000E+00  0.00000000E+00  0.00000000E+00
  0.00000000E+00  0.00000000E+00  0.00000000E+00
  0.00000000E+00  0.00000000E+00  0.00000000E+00
  0.00000000E+00  0.00000000E+00  0.00000000E+00
  0.00000000E+00  0.00000000E+00  0.00000000E+00
  0.00000000E+00  0.00000000E+00  0.00000000E+00
  0.00000000E+00  0.00000000E+00  0.00000000E+00
  0.00000000E+00  0.00000000E+00  0.00000000E+00
  0.00000000E+00  0.00000000E+00  0.00000000E+00
  0.00000000E+00  0.00000000E+00  0.00000000E+00
  0.00000000E+00  0.00000000E+00  0.00000000E+00
  0.00000000E+00  0.00000000E+00  0.00000000E+00
  0.00000000E+00  0.00000000E+00  0.00000000E+00
  0.00000000E+00  0.00000000E+00  0.00000000E+00
  0.00000000E+00  0.00000000E+00  0.00000000E+00
  0.00000000E+00  0.00000000E+00  0.00000000E+00
  0.00000000E+00  0.00000000E+00  0.00000000E+00
  0.00000000E+00  0.00000000E+00  0.00000000E+00
  0.00000000E+00  0.00000000E+00  0.00000000E+00
  0.00000000E+00  0.00000000E+00  0.00000000E+00
  0.00000000E+00  0.00000000E+00  0.00000000E+00
  0.00000000E+00  0.00000000E+00  0.00000000E+00
  0.00000000E+00  0.00000000E+00  0.00000000E+00
  0.00000000E+00  0.00000000E+00  0.00000000E+00
  0.00000000E+00  0.00000000E+00  0.00000000E+00
  0.00000000E+00  0.00000000E+00  0.00000000E+00
  0.00000000E+00  0.00000000E+00  0.00000000E+00
