V72 Bi90 O288
1.0
  15.5002527237000010    0.0000000000000000    0.0000000000000000
   2.5833744101000002   19.2660001628999993    0.0000000000000000
   2.5833766824000000    0.5568380050000000   42.5754782337999984
Bi V O
90 72 288
direct
   0.1754690866792156    0.0768319494656573    0.9769015834774467 Bi
   0.2865801977903266    0.4101652827989907    0.9769015834774467 Bi
   0.3976913089014379    0.7434986161323240    0.9769015834774467 Bi
   0.5088024200125489    0.0768319494656573    0.9769015834774467 Bi
   0.6199135311236600    0.4101652827989907    0.9769015834774467 Bi
   0.7310246422347711    0.7434986161323240    0.9769015834774467 Bi
   0.8421357533458820    0.0768319494656573    0.9769015834774467 Bi
   0.9532468644569931    0.4101652827989907    0.9769015834774467 Bi
   0.0643579755681043    0.7434986161323240    0.9769015834774467 Bi
   0.1928548137346804    0.0198797829780854    0.9064203846203669 Bi
   0.3039659248457915    0.3532131163114188    0.9064203846203669 Bi
   0.4150770359569027    0.6865464496447521    0.9064203846203669 Bi
   0.5261881470680138    0.0198797829780854    0.9064203846203669 Bi
   0.6372992581791248    0.3532131163114188    0.9064203846203669 Bi
   0.7484103692902359    0.6865464496447521    0.9064203846203669 Bi
   0.8595214804013470    0.0198797829780854    0.9064203846203669 Bi
   0.9706325915124580    0.3532131163114188    0.9064203846203669 Bi
   0.0817437026235690    0.6865464496447521    0.9064203846203669 Bi
   0.1528724654706371    0.2035233417911187    0.8718493419725131 Bi
   0.2639835765817481    0.5368566751244521    0.8718493419725131 Bi
   0.3750946876928593    0.8701900084577855    0.8718493419725131 Bi
   0.4862057988039702    0.2035233417911187    0.8718493419725131 Bi
   0.5973169099150815    0.5368566751244521    0.8718493419725131 Bi
   0.7084280210261926    0.8701900084577855    0.8718493419725131 Bi
   0.8195391321373036    0.2035233417911187    0.8718493419725131 Bi
   0.9306502432484145    0.5368566751244521    0.8718493419725131 Bi
   0.0417613543595259    0.8701900084577855    0.8718493419725131 Bi
   0.1811729369062904    0.1232187851045596    0.7916159900512879 Bi
   0.2922840480174015    0.4565521184378930    0.7916159900512879 Bi
   0.4033951591285126    0.7898854517712263    0.7916159900512879 Bi
   0.5145062702396237    0.1232187851045596    0.7916159900512879 Bi
   0.6256173813507347    0.4565521184378930    0.7916159900512879 Bi
   0.7367284924618459    0.7898854517712263    0.7916159900512879 Bi
   0.8478396035729571    0.1232187851045596    0.7916159900512879 Bi
   0.9589507146840679    0.4565521184378930    0.7916159900512879 Bi
   0.0700618257951791    0.7898854517712263    0.7916159900512879 Bi
   0.1523290339515362    0.3171887464065868    0.7637090935997695 Bi
   0.2634401450626473    0.6505220797399200    0.7637090935997695 Bi
   0.3745512561737584    0.9838554130732534    0.7637090935997695 Bi
   0.4856623672848696    0.3171887464065868    0.7637090935997695 Bi
   0.5967734783959805    0.6505220797399200    0.7637090935997695 Bi
   0.7078845895070918    0.9838554130732534    0.7637090935997695 Bi
   0.8189957006182028    0.3171887464065868    0.7637090935997695 Bi
   0.9301068117293139    0.6505220797399200    0.7637090935997695 Bi
   0.0412179228404250    0.9838554130732534    0.7637090935997695 Bi
   0.1810043023817977    0.2383668155934130    0.6807353244002339 Bi
   0.2921154134929089    0.5717001489267463    0.6807353244002339 Bi
   0.4032265246040200    0.9050334822600795    0.6807353244002339 Bi
   0.5143376357151310    0.2383668155934130    0.6807353244002339 Bi
   0.6254487468262422    0.5717001489267463    0.6807353244002339 Bi
   0.7365598579373533    0.9050334822600795    0.6807353244002339 Bi
   0.8476709690484644    0.2383668155934130    0.6807353244002339 Bi
   0.9587820801595754    0.5717001489267463    0.6807353244002339 Bi
   0.0698931912706866    0.9050334822600795    0.6807353244002339 Bi
   0.0410492856492656    0.0990034435621068    0.6528284279487155 Bi
   0.1521603967603767    0.4323367768954400    0.6528284279487155 Bi
   0.2632715078714878    0.7656701102287734    0.6528284279487155 Bi
   0.3743826189825989    0.0990034435621068    0.6528284279487155 Bi
   0.4854937300937100    0.4323367768954400    0.6528284279487155 Bi
   0.5966048412048212    0.7656701102287734    0.6528284279487155 Bi
   0.7077159523159322    0.0990034435621068    0.6528284279487155 Bi
   0.8188270634270431    0.4323367768954400    0.6528284279487155 Bi
   0.9299381745381544    0.7656701102287734    0.6528284279487155 Bi
   0.0693497601960295    0.0186988872088823    0.5725950760274904 Bi
   0.1804608713071406    0.3520322205422156    0.5725950760274904 Bi
   0.2915719824182517    0.6853655538755489    0.5725950760274904 Bi
   0.4026830935293628    0.0186988872088823    0.5725950760274904 Bi
   0.5137942046404740    0.3520322205422156    0.5725950760274904 Bi
   0.6249053157515851    0.6853655538755489    0.5725950760274904 Bi
   0.7360164268626961    0.0186988872088823    0.5725950760274904 Bi
   0.8471275379738071    0.3520322205422156    0.5725950760274904 Bi
   0.9582386490849182    0.6853655538755489    0.5725950760274904 Bi
   0.3627007549319857    0.2023424460219155    0.5380240923796378 Bi
   0.4738118660430968    0.5356757793552488    0.5380240923796378 Bi
   0.5849229771542078    0.8690091126885822    0.5380240923796378 Bi
   0.6960340882653189    0.2023424460219155    0.5380240923796378 Bi
   0.8071451993764300    0.5356757793552488    0.5380240923796378 Bi
   0.9182563104875411    0.8690091126885822    0.5380240923796378 Bi
   0.0293674215986524    0.2023424460219155    0.5380240923796378 Bi
   0.1404785327097633    0.5356757793552488    0.5380240923796378 Bi
   0.2515896438208745    0.8690091126885822    0.5380240923796378 Bi
   0.0467531335430079    0.1453902792010091    0.4675428345225496 Bi
   0.1578642446541190    0.4787236125343424    0.4675428345225496 Bi
   0.2689753557652301    0.8120569458676757    0.4675428345225496 Bi
   0.3800864668763412    0.1453902792010091    0.4675428345225496 Bi
   0.4911975779874523    0.4787236125343424    0.4675428345225496 Bi
   0.6023086890985634    0.8120569458676757    0.4675428345225496 Bi
   0.7134198002096744    0.1453902792010091    0.4675428345225496 Bi
   0.8245309113207854    0.4787236125343424    0.4675428345225496 Bi
   0.9356420224318966    0.8120569458676757    0.4675428345225496 Bi
   0.3166492914841805    0.1535046930816573    0.9331497730929970 V
   0.4277604025952915    0.4868380264149907    0.9331497730929970 V
   0.5388715137064026    0.8201713597483239    0.9331497730929970 V
   0.6499826248175137    0.1535046930816573    0.9331497730929970 V
   0.7610937359286248    0.4868380264149907    0.9331497730929970 V
   0.8722048470397360    0.8201713597483239    0.9331497730929970 V
   0.9833159581508469    0.1535046930816573    0.9331497730929970 V
   0.0944270692619582    0.4868380264149907    0.9331497730929970 V
   0.2055381803730691    0.8201713597483239    0.9331497730929970 V
   0.3194695043667725    0.2633687473007116    0.8191167028931198 V
   0.4305806154778836    0.5967020806340450    0.8191167028931198 V
   0.5416917265889946    0.9300354139673783    0.8191167028931198 V
   0.6528028377001057    0.2633687473007116    0.8191167028931198 V
   0.7639139488112168    0.5967020806340450    0.8191167028931198 V
   0.8750250599223279    0.9300354139673783    0.8191167028931198 V
   0.9861361710334391    0.2633687473007116    0.8191167028931198 V
   0.0972472821445503    0.5967020806340450    0.8191167028931198 V
   0.2083583932556612    0.9300354139673783    0.8191167028931198 V
   0.3470726233272813    0.0729034083797357    0.8496347033973330 V
   0.4581837344383922    0.4062367417130691    0.8496347033973330 V
   0.5692948455495035    0.7395700750464023    0.8496347033973330 V
   0.6804059566606145    0.0729034083797357    0.8496347033973330 V
   0.7915170677717257    0.4062367417130691    0.8496347033973330 V
   0.9026281788828368    0.7395700750464023    0.8496347033973330 V
   0.0137392899939477    0.0729034083797357    0.8496347033973330 V
   0.1248504011050589    0.4062367417130691    0.8496347033973330 V
   0.2359615122161700    0.7395700750464023    0.8496347033973330 V
   0.2089060528434366    0.0409012076870528    0.7081491951771746 V
   0.3200171639545478    0.3742345410203861    0.7081491951771746 V
   0.4311282750656589    0.7075678743537195    0.7081491951771746 V
   0.5422393861767699    0.0409012076870528    0.7081491951771746 V
   0.6533504972878809    0.3742345410203861    0.7081491951771746 V
   0.7644616083989921    0.7075678743537195    0.7081491951771746 V
   0.8755727195101032    0.0409012076870528    0.7081491951771746 V
   0.9866838306212143    0.3742345410203861    0.7081491951771746 V
   0.0977949417323254    0.7075678743537195    0.7081491951771746 V
   0.3466495116010068    0.1813210086462802    0.7362952828228266 V
   0.4577606227121179    0.5146543419796136    0.7362952828228266 V
   0.5688717338232290    0.8479876753129469    0.7362952828228266 V
   0.6799828449343401    0.1813210086462802    0.7362952828228266 V
   0.7910939560454512    0.5146543419796136    0.7362952828228266 V
   0.9022050671565625    0.8479876753129469    0.7362952828228266 V
   0.0133161782676734    0.1813210086462802    0.7362952828228266 V
   0.1244272893787846    0.5146543419796136    0.7362952828228266 V
   0.2355384004898957    0.8479876753129469    0.7362952828228266 V
   0.2084829356727188    0.1493188206202652    0.5948097736026717 V
   0.3195940467838299    0.4826521539535986    0.5948097736026717 V
   0.4307051578949410    0.8159854872869318    0.5948097736026717 V
   0.5418162690060523    0.1493188206202652    0.5948097736026717 V
   0.6529273801171632    0.4826521539535986    0.5948097736026717 V
   0.7640384912282744    0.8159854872869318    0.5948097736026717 V
   0.8751496023393854    0.1493188206202652    0.5948097736026717 V
   0.9862607134504965    0.4826521539535986    0.5948097736026717 V
   0.0973718245616075    0.8159854872869318    0.5948097736026717 V
   0.3471971756332255    0.2921868146992880    0.6253277151068765 V
   0.4583082867443365    0.6255201480326215    0.6253277151068765 V
   0.5694193978554476    0.9588534813659547    0.6253277151068765 V
   0.6805305089665588    0.2921868146992880    0.6253277151068765 V
   0.7916416200776697    0.6255201480326215    0.6253277151068765 V
   0.9027527311887811    0.9588534813659547    0.6253277151068765 V
   0.0138638422998920    0.2921868146992880    0.6253277151068765 V
   0.1249749534110030    0.6255201480326215    0.6253277151068765 V
   0.2360860645221143    0.9588534813659547    0.6253277151068765 V
   0.2389062771824856    0.0687175359183436    0.5112946449070064 V
   0.3500173882935967    0.4020508692516770    0.5112946449070064 V
   0.4611284994047079    0.7353842025850102    0.5112946449070064 V
   0.5722396105158190    0.0687175359183436    0.5112946449070064 V
   0.6833507216269300    0.4020508692516770    0.5112946449070064 V
   0.7944618327380411    0.7353842025850102    0.5112946449070064 V
   0.9055729438491522    0.0687175359183436    0.5112946449070064 V
   0.0166840549602629    0.4020508692516770    0.5112946449070064 V
   0.1277951660713743    0.7353842025850102    0.5112946449070064 V
   0.2485006281714037    0.1659761899930298    0.9676444388174507 O
   0.3596117392825147    0.4993095233263631    0.9676444388174507 O
   0.4707228503936259    0.8326428566596965    0.9676444388174507 O
   0.5818339615047369    0.1659761899930298    0.9676444388174507 O
   0.6929450726158480    0.4993095233263631    0.9676444388174507 O
   0.8040561837269590    0.8326428566596965    0.9676444388174507 O
   0.9151672948380702    0.1659761899930298    0.9676444388174507 O
   0.0262784059491812    0.4993095233263631    0.9676444388174507 O
   0.1373895170602923    0.8326428566596965    0.9676444388174507 O
   0.3554613102958799    0.2277396554939078    0.9178970563547183 O
   0.4665724214069909    0.5610729888272411    0.9178970563547183 O
   0.5776835325181019    0.8944063221605745    0.9178970563547183 O
   0.6887946436292129    0.2277396554939078    0.9178970563547183 O
   0.7999057547403241    0.5610729888272411    0.9178970563547183 O
   0.9110168658514353    0.8944063221605745    0.9178970563547183 O
   0.0221279769625464    0.2277396554939078    0.9178970563547183 O
   0.1332390880736574    0.5610729888272411    0.9178970563547183 O
   0.2443501991847683    0.8944063221605745    0.9178970563547183 O
   0.2428164925520456    0.1278016538436489    0.9056772351141916 O
   0.3539276036631567    0.4611349871769823    0.9056772351141916 O
   0.4650387147742678    0.7944683205103156    0.9056772351141916 O
   0.5761498258853789    0.1278016538436489    0.9056772351141916 O
   0.6872609369964900    0.4611349871769823    0.9056772351141916 O
   0.7983720481076012    0.7944683205103156    0.9056772351141916 O
   0.9094831592187124    0.1278016538436489    0.9056772351141916 O
   0.0205942703298230    0.4611349871769823    0.9056772351141916 O
   0.1317053814409341    0.7944683205103156    0.9056772351141916 O
   0.0727939441451524    0.0885838715871922    0.9428537848556191 O
   0.1839050552562636    0.4219172049205254    0.9428537848556191 O
   0.2950161663673747    0.7552505382538588    0.9428537848556191 O
   0.4061272774784857    0.0885838715871922    0.9428537848556191 O
   0.5172383885895968    0.4219172049205254    0.9428537848556191 O
   0.6283494997007080    0.7552505382538588    0.9428537848556191 O
   0.7394606108118190    0.0885838715871922    0.9428537848556191 O
   0.8505717219229298    0.4219172049205254    0.9428537848556191 O
   0.9616828330340412    0.7552505382538588    0.9428537848556191 O
   0.2668031245090595    0.2782608058945185    0.8553058539146501 O
   0.3779142356201705    0.6115941392278517    0.8553058539146501 O
   0.4890253467312817    0.9449274725611850    0.8553058539146501 O
   0.6001364578423929    0.2782608058945185    0.8553058539146501 O
   0.7112475689535038    0.6115941392278517    0.8553058539146501 O
   0.8223586800646151    0.9449274725611850    0.8553058539146501 O
   0.9334697911757260    0.2782608058945185    0.8553058539146501 O
   0.0445809022868371    0.6115941392278517    0.8553058539146501 O
   0.1556920133979482    0.9449274725611850    0.8553058539146501 O
   0.0691410530578168    0.0548673265761937    0.8136555368893119 O
   0.1802521641689279    0.3882006599095271    0.8136555368893119 O
   0.2913632752800390    0.7215339932428604    0.8136555368893119 O
   0.4024743863911500    0.0548673265761937    0.8136555368893119 O
   0.5135854975022612    0.3882006599095271    0.8136555368893119 O
   0.6246966086133723    0.7215339932428604    0.8136555368893119 O
   0.7358077197244833    0.0548673265761937    0.8136555368893119 O
   0.8469188308355944    0.3882006599095271    0.8136555368893119 O
   0.9580299419467054    0.7215339932428604    0.8136555368893119 O
   0.2463647721014233    0.0027261468512985    0.8008888518562600 O
   0.3574758832125344    0.3360594801846318    0.8008888518562600 O
   0.4685869943236455    0.6693928135179651    0.8008888518562600 O
   0.5796981054347566    0.0027261468512985    0.8008888518562600 O
   0.6908092165458678    0.3360594801846318    0.8008888518562600 O
   0.8019203276569790    0.6693928135179651    0.8008888518562600 O
   0.9130314387680899    0.0027261468512985    0.8008888518562600 O
   0.0241425498792007    0.3360594801846318    0.8008888518562600 O
   0.1352536609903119    0.6693928135179651    0.8008888518562600 O
   0.0870105076229560    0.1039670943966363    0.8741934637022948 O
   0.1981216187340672    0.4373004277299695    0.8741934637022948 O
   0.3092327298451782    0.7706337610633029    0.8741934637022948 O
   0.4203438409562893    0.1039670943966363    0.8741934637022948 O
   0.5314549520674005    0.4373004277299695    0.8741934637022948 O
   0.6425660631785116    0.7706337610633029    0.8741934637022948 O
   0.7536771742896227    0.1039670943966363    0.8741934637022948 O
   0.8647882854007335    0.4373004277299695    0.8741934637022948 O
   0.9758993965118449    0.7706337610633029    0.8741934637022948 O
   0.2446214107791988    0.2354126792698479    0.7947318046609599 O
   0.3557325218903098    0.5687460126031814    0.7947318046609599 O
   0.4668436330014211    0.9020793459365147    0.7947318046609599 O
   0.5779547441125321    0.2354126792698479    0.7947318046609599 O
   0.6890658552236433    0.5687460126031814    0.7947318046609599 O
   0.8001769663347542    0.9020793459365147    0.7947318046609599 O
   0.9112880774458654    0.2354126792698479    0.7947318046609599 O
   0.0223991885569761    0.5687460126031814    0.7947318046609599 O
   0.1335102996680877    0.9020793459365147    0.7947318046609599 O
   0.2506660695028020    0.1295980095068921    0.8406913557040592 O
   0.3617771806139131    0.4629313428402254    0.8406913557040592 O
   0.4728882917250242    0.7962646761735588    0.8406913557040592 O
   0.5839994028361354    0.1295980095068921    0.8406913557040592 O
   0.6951105139472463    0.4629313428402254    0.8406913557040592 O
   0.8062216250583576    0.7962646761735588    0.8406913557040592 O
   0.9173327361694685    0.1295980095068921    0.8406913557040592 O
   0.0284438472805797    0.4629313428402254    0.8406913557040592 O
   0.1395549583916909    0.7962646761735588    0.8406913557040592 O
   0.0808506047294447    0.2042682603543835    0.8261953846609004 O
   0.1919617158405558    0.5376015936877170    0.8261953846609004 O
   0.3030728269516669    0.8709349270210502    0.8261953846609004 O
   0.4141839380627780    0.2042682603543835    0.8261953846609004 O
   0.5252950491738891    0.5376015936877170    0.8261953846609004 O
   0.6364061602850002    0.8709349270210502    0.8261953846609004 O
   0.7475172713961112    0.2042682603543835    0.8261953846609004 O
   0.8586283825072223    0.5376015936877170    0.8261953846609004 O
   0.9697394936183334    0.8709349270210502    0.8261953846609004 O
   0.1538539747635110    0.0565619863756295    0.7445926247798372 O
   0.2649650858746221    0.3898953197089628    0.7445926247798372 O
   0.3760761969857331    0.7232286530422961    0.7445926247798372 O
   0.4871873080968442    0.0565619863756295    0.7445926247798372 O
   0.5982984192079555    0.3898953197089628    0.7445926247798372 O
   0.7094095303190666    0.7232286530422961    0.7445926247798372 O
   0.8205206414301777    0.0565619863756295    0.7445926247798372 O
   0.9316317525412887    0.3898953197089628    0.7445926247798372 O
   0.0427428636523999    0.7232286530422961    0.7445926247798372 O
   0.0683682469031544    0.1656602376243722    0.6998518522201675 O
   0.1794793580142656    0.4989935709577055    0.6998518522201675 O
   0.2905904691253766    0.8323269042910389    0.6998518522201675 O
   0.4017015802364877    0.1656602376243722    0.6998518522201675 O
   0.5128126913475990    0.4989935709577055    0.6998518522201675 O
   0.6239238024587100    0.8323269042910389    0.6998518522201675 O
   0.7350349135698211    0.1656602376243722    0.6998518522201675 O
   0.8461460246809319    0.4989935709577055    0.6998518522201675 O
   0.9572571357920433    0.8323269042910389    0.6998518522201675 O
   0.2450172099729042    0.1127549836748927    0.6891552223158887 O
   0.3561283210840153    0.4460883170082260    0.6891552223158887 O
   0.4672394321951264    0.7794216503415593    0.6891552223158887 O
   0.5783505433062375    0.1127549836748927    0.6891552223158887 O
   0.6894616544173487    0.4460883170082260    0.6891552223158887 O
   0.8005727655284599    0.7794216503415593    0.6891552223158887 O
   0.9116838766395707    0.1127549836748927    0.6891552223158887 O
   0.0227949877506819    0.4460883170082260    0.6891552223158887 O
   0.1339060988617928    0.7794216503415593    0.6891552223158887 O
   0.3105383353604290    0.1094672353251075    0.7552892556841125 O
   0.4216494464715400    0.4428005686584408    0.7552892556841125 O
   0.5327605575826512    0.7761339019917741    0.7552892556841125 O
   0.6438716686937622    0.1094672353251075    0.7552892556841125 O
   0.7549827798048734    0.4428005686584408    0.7552892556841125 O
   0.8660938909159845    0.7761339019917741    0.7552892556841125 O
   0.9772050020270958    0.1094672353251075    0.7552892556841125 O
   0.0883161131382066    0.4428005686584408    0.7552892556841125 O
   0.1994272242493178    0.7761339019917741    0.7552892556841125 O
   0.0877083595929510    0.2098929326012397    0.7606793757595950 O
   0.1988194707040622    0.5432262659345731    0.7606793757595950 O
   0.3099305818151733    0.8765595992679063    0.7606793757595950 O
   0.4210416929262843    0.2098929326012397    0.7606793757595950 O
   0.5321528040373954    0.5432262659345731    0.7606793757595950 O
   0.6432639151485067    0.8765595992679063    0.7606793757595950 O
   0.7543750262596177    0.2098929326012397    0.7606793757595950 O
   0.8654861373707288    0.5432262659345731    0.7606793757595950 O
   0.9765972484818399    0.8765595992679063    0.7606793757595950 O
   0.1345138612959369    0.0123292900654261    0.6837650422404083 O
   0.2456249724070480    0.3456626233987595    0.6837650422404083 O
   0.3567360835181591    0.6789959567320928    0.6837650422404083 O
   0.4678471946292701    0.0123292900654261    0.6837650422404083 O
   0.5789583057403813    0.3456626233987595    0.6837650422404083 O
   0.6900694168514924    0.6789959567320928    0.6837650422404083 O
   0.8011805279626034    0.0123292900654261    0.6837650422404083 O
   0.9122916390737144    0.3456626233987595    0.6837650422404083 O
   0.0234027501848257    0.6789959567320928    0.6837650422404083 O
   0.2532486948351154    0.2400950490254859    0.7291145460107957 O
   0.3643598059462265    0.5734283823588192    0.7291145460107957 O
   0.4754709170573375    0.9067617156921525    0.7291145460107957 O
   0.5865820281684485    0.2400950490254859    0.7291145460107957 O
   0.6976931392795598    0.5734283823588192    0.7291145460107957 O
   0.8088042503906711    0.9067617156921525    0.7291145460107957 O
   0.9199153615017821    0.2400950490254859    0.7291145460107957 O
   0.0310264726128930    0.5734283823588192    0.7291145460107957 O
   0.1421375837240040    0.9067617156921525    0.7291145460107957 O
   0.1530811726088498    0.1673549024238074    0.6307888811106915 O
   0.2641922837199610    0.5006882357571407    0.6307888811106915 O
   0.3753033948310721    0.8340215690904741    0.6307888811106915 O
   0.4864145059421832    0.1673549024238074    0.6307888811106915 O
   0.5975256170532942    0.5006882357571407    0.6307888811106915 O
   0.7086367281644053    0.8340215690904741    0.6307888811106915 O
   0.8197478392755163    0.1673549024238074    0.6307888811106915 O
   0.9308589503866274    0.5006882357571407    0.6307888811106915 O
   0.0419700614977385    0.8340215690904741    0.6307888811106915 O
   0.3998635354909414    0.2772947561054813    0.5891386240853511 O
   0.5109746466020526    0.6106280894388146    0.5891386240853511 O
   0.6220857577131638    0.9439614227721479    0.5891386240853511 O
   0.7331968688242748    0.2772947561054813    0.5891386240853511 O
   0.8443079799353860    0.6106280894388146    0.5891386240853511 O
   0.9554190910464969    0.9439614227721479    0.5891386240853511 O
   0.0665302021576080    0.2772947561054813    0.5891386240853511 O
   0.1776413132687189    0.6106280894388146    0.5891386240853511 O
   0.2887524243798301    0.9439614227721479    0.5891386240853511 O
   0.2438243240225163    0.2199597694732483    0.5728903630340835 O
   0.3549354351336274    0.5532931028065816    0.5728903630340835 O
   0.4660465462447385    0.8866264361399149    0.5728903630340835 O
   0.5771576573558497    0.2199597694732483    0.5728903630340835 O
   0.6882687684669607    0.5532931028065816    0.5728903630340835 O
   0.7993798795780719    0.8866264361399149    0.5728903630340835 O
   0.9104909906891829    0.2199597694732483    0.5728903630340835 O
   0.0216021018002939    0.5532931028065816    0.5728903630340835 O
   0.1327132129114053    0.8866264361399149    0.5728903630340835 O
   0.3091907753430223    0.2194960774820355    0.6435556251437375 O
   0.4203018864541335    0.5528294108153688    0.6435556251437375 O
   0.5314129975652445    0.8861627441487023    0.6435556251437375 O
   0.6425241086763556    0.2194960774820355    0.6435556251437375 O
   0.7536352197874667    0.5528294108153688    0.6435556251437375 O
   0.8647463308985777    0.8861627441487023    0.6435556251437375 O
   0.9758574420096888    0.2194960774820355    0.6435556251437375 O
   0.0869685531207998    0.5528294108153688    0.6435556251437375 O
   0.1980796642319111    0.8861627441487023    0.6435556251437375 O
   0.1352117180437128    0.1182551346033647    0.5702509542977015 O
   0.2463228291548238    0.4515884679366980    0.5702509542977015 O
   0.3574339402659350    0.7849218012700313    0.5702509542977015 O
   0.4685450513770460    0.1182551346033647    0.5702509542977015 O
   0.5796561624881572    0.4515884679366980    0.5702509542977015 O
   0.6907672735992684    0.7849218012700313    0.5702509542977015 O
   0.8018783847103793    0.1182551346033647    0.5702509542977015 O
   0.9129894958214905    0.4515884679366980    0.5702509542977015 O
   0.0241006069326013    0.7849218012700313    0.5702509542977015 O
   0.1413716131594448    0.0179539623122847    0.6182490333390959 O
   0.2524827242705560    0.3512872956456180    0.6182490333390959 O
   0.3635938353816671    0.6846206289789514    0.6182490333390959 O
   0.4747049464927781    0.0179539623122847    0.6182490333390959 O
   0.5858160576038892    0.3512872956456180    0.6182490333390959 O
   0.6969271687150004    0.6846206289789514    0.6182490333390959 O
   0.8080382798261114    0.0179539623122847    0.6182490333390959 O
   0.9191493909372225    0.3512872956456180    0.6182490333390959 O
   0.0302605020483335    0.6846206289789514    0.6182490333390959 O
   0.3048894994971978    0.0926242194931065    0.6037530622959442 O
   0.4160006106083090    0.4259575528264398    0.6037530622959442 O
   0.5271117217194200    0.7592908861597731    0.6037530622959442 O
   0.6382228328305311    0.0926242194931065    0.6037530622959442 O
   0.7493339439416422    0.4259575528264398    0.6037530622959442 O
   0.8604450550527535    0.7592908861597731    0.6037530622959442 O
   0.9715561661638644    0.0926242194931065    0.6037530622959442 O
   0.0826672772749755    0.4259575528264398    0.6037530622959442 O
   0.1937783883860869    0.7592908861597731    0.6037530622959442 O
   0.3070549208285954    0.0562460390069712    0.4768000081825439 O
   0.4181660319397065    0.3895793723403045    0.4768000081825439 O
   0.5292771430508175    0.7229127056736377    0.4768000081825439 O
   0.6403882541619285    0.0562460390069712    0.4768000081825439 O
   0.7514993652730398    0.3895793723403045    0.4768000081825439 O
   0.8626104763841509    0.7229127056736377    0.4768000081825439 O
   0.9737215874952621    0.0562460390069712    0.4768000081825439 O
   0.0848326986063730    0.3895793723403045    0.4768000081825439 O
   0.1959438097174839    0.7229127056736377    0.4768000081825439 O
   0.3127390564479557    0.0944205751563520    0.5387671828858117 O
   0.4238501675590668    0.4277539084896853    0.5387671828858117 O
   0.5349612786701780    0.7610872418230187    0.5387671828858117 O
   0.6460723897812891    0.0944205751563520    0.5387671828858117 O
   0.7571835008924002    0.4277539084896853    0.5387671828858117 O
   0.8682946120035114    0.7610872418230187    0.5387671828858117 O
   0.9794057231146224    0.0944205751563520    0.5387671828858117 O
   0.0905168342257334    0.4277539084896853    0.5387671828858117 O
   0.2016279453368444    0.7610872418230187    0.5387671828858117 O
   0.1494282765215141    0.1336383574128064    0.5015906331443842 O
   0.2605393876326252    0.4669716907461397    0.5015906331443842 O
   0.3716504987437363    0.8003050240794730    0.5015906331443842 O
   0.4827616098548474    0.1336383574128064    0.5015906331443842 O
   0.5938727209659584    0.4669716907461397    0.5015906331443842 O
   0.7049838320770696    0.8003050240794730    0.5015906331443842 O
   0.8160949431881807    0.1336383574128064    0.5015906331443842 O
   0.9272060542992914    0.4669716907461397    0.5015906331443842 O
   0.0383171654104029    0.8003050240794730    0.5015906331443842 O
   0.3117312383108179    0.0022624395267533    0.8715541139659212 O
   0.4228423494219290    0.3355957728600866    0.8715541139659212 O
   0.5339534605330400    0.6689291061934199    0.8715541139659212 O
   0.6450645716441512    0.0022624395267533    0.8715541139659212 O
   0.7561756827552621    0.3355957728600866    0.8715541139659212 O
   0.8672867938663734    0.6689291061934199    0.8715541139659212 O
   0.9783979049774844    0.0022624395267533    0.8715541139659212 O
   0.0895090160885952    0.3355957728600866    0.8715541139659212 O
   0.2006201271997066    0.6689291061934199    0.8715541139659212 O
   0.4220452492207999    0.3201428827301518    0.6497126133390364 O
   0.5331563603319109    0.6534762160634852    0.6497126133390364 O
   0.6442674714430221    0.9868095493968185    0.6497126133390364 O
   0.7553785825541331    0.3201428827301518    0.6497126133390364 O
   0.8664896936652444    0.6534762160634852    0.6497126133390364 O
   0.9776008047763556    0.9868095493968185    0.6497126133390364 O
   0.0887119158874667    0.3201428827301518    0.6497126133390364 O
   0.1998230269985775    0.6534762160634852    0.6497126133390364 O
   0.3109341381096886    0.9868095493968185    0.6497126133390364 O
   0.3112053431485639    0.3278158868394273    0.5265474216452830 O
   0.4223164542596751    0.6611492201727606    0.5265474216452830 O
   0.5334275653707861    0.9944825535060938    0.5265474216452830 O
   0.6445386764818972    0.3278158868394273    0.5265474216452830 O
   0.7556497875930083    0.6611492201727606    0.5265474216452830 O
   0.8667608987041195    0.9944825535060938    0.5265474216452830 O
   0.9778720098152304    0.3278158868394273    0.5265474216452830 O
   0.0889831209263414    0.6611492201727606    0.5265474216452830 O
   0.2000942320374526    0.9944825535060938    0.5265474216452830 O
   0.4134179848315502    0.3154605129745139    0.7153298719892076 O
   0.5245290959426614    0.6487938463078471    0.7153298719892076 O
   0.6356402070537724    0.9821271796411803    0.7153298719892076 O
   0.7467513181648836    0.3154605129745139    0.7153298719892076 O
   0.8578624292759947    0.6487938463078471    0.7153298719892076 O
   0.9689735403871057    0.9821271796411803    0.7153298719892076 O
   0.0800846514982170    0.3154605129745139    0.7153298719892076 O
   0.1911957626093279    0.6487938463078471    0.7153298719892076 O
   0.3023068737204391    0.9821271796411803    0.7153298719892076 O
