V90 Bi90 O360
1.0
  15.4718018103047292    0.0000000000000000    0.9387106140550605
   2.5633749815568789   19.2643516939176500    0.4079444646441381
   0.0000000000000000    0.0000000000000000   42.6574184626183310
Bi V O
90 90 360
direct
   0.1505966392404952    0.1021399606682410    0.9819049990320949 Bi
   0.2617077503516063    0.4354732940015744    0.9819049990320949 Bi
   0.3728188614627174    0.7688066273349077    0.9819049990320950 Bi
   0.4839299725738284    0.1021399606682410    0.9819049990320950 Bi
   0.5950410836849396    0.4354732940015744    0.9819049990320949 Bi
   0.7061521947960507    0.7688066273349077    0.9819049990320950 Bi
   0.8172633059071617    0.1021399606682410    0.9819049990320950 Bi
   0.9283744170182726    0.4354732940015744    0.9819049990320949 Bi
   0.0394855281293840    0.7688066273349077    0.9819049990320949 Bi
   0.1780720552426176    0.0091378705379633    0.9061904132894429 Bi
   0.2891831663537287    0.3424712038712966    0.9061904132894428 Bi
   0.4002942774648398    0.6758045372046299    0.9061904132894429 Bi
   0.5114053885759509    0.0091378705379633    0.9061904132894429 Bi
   0.6225164996870620    0.3424712038712966    0.9061904132894428 Bi
   0.7336276107981731    0.6758045372046299    0.9061904132894429 Bi
   0.8447387219092841    0.0091378705379633    0.9061904132894429 Bi
   0.9558498330203951    0.3424712038712966    0.9061904132894428 Bi
   0.0669609441315062    0.6758045372046299    0.9061904132894428 Bi
   0.1523292338530110    0.2045103210101349    0.8731475074823069 Bi
   0.2634403449641221    0.5378436543434681    0.8731475074823069 Bi
   0.3745514560752332    0.8711769876768015    0.8731475074823070 Bi
   0.4856625671863443    0.2045103210101349    0.8731475074823069 Bi
   0.5967736782974553    0.5378436543434681    0.8731475074823069 Bi
   0.7078847894085665    0.8711769876768015    0.8731475074823070 Bi
   0.8189959005196775    0.2045103210101349    0.8731475074823069 Bi
   0.9301070116307885    0.5378436543434681    0.8731475074823069 Bi
   0.0412181227418997    0.8711769876768015    0.8731475074823069 Bi
   0.1804928447102609    0.1233195721190761    0.7920296491806091 Bi
   0.2916039558213719    0.4566529054524094    0.7920296491806091 Bi
   0.4027150669324831    0.7899862387857428    0.7920296491806093 Bi
   0.5138261780435941    0.1233195721190761    0.7920296491806091 Bi
   0.6249372891547053    0.4566529054524094    0.7920296491806091 Bi
   0.7360484002658164    0.7899862387857428    0.7920296491806093 Bi
   0.8471595113769274    0.1233195721190761    0.7920296491806091 Bi
   0.9582706224880385    0.4566529054524094    0.7920296491806091 Bi
   0.0693817335991496    0.7899862387857428    0.7920296491806090 Bi
   0.1532951857806216    0.3186163537758456    0.7636094649197324 Bi
   0.2644062968917327    0.6519496871091789    0.7636094649197323 Bi
   0.3755174080028437    0.9852830204425121    0.7636094649197324 Bi
   0.4866285191139549    0.3186163537758456    0.7636094649197324 Bi
   0.5977396302250659    0.6519496871091789    0.7636094649197323 Bi
   0.7088507413361772    0.9852830204425121    0.7636094649197324 Bi
   0.8199618524472880    0.3186163537758456    0.7636094649197324 Bi
   0.9310729635583992    0.6519496871091789    0.7636094649197323 Bi
   0.0421840746695104    0.9852830204425121    0.7636094649197323 Bi
   0.1800381475527133    0.2369392017797091    0.6808349795247106 Bi
   0.2911492586638243    0.5702725351130424    0.6808349795247106 Bi
   0.4022603697749354    0.9036058684463757    0.6808349795247106 Bi
   0.5133714808860464    0.2369392017797091    0.6808349795247106 Bi
   0.6244825919971577    0.5702725351130424    0.6808349795247106 Bi
   0.7355937031082687    0.9036058684463757    0.6808349795247106 Bi
   0.8467048142193798    0.2369392017797091    0.6808349795247106 Bi
   0.9578159253304908    0.5702725351130424    0.6808349795247106 Bi
   0.0689270364416021    0.9036058684463757    0.6808349795247106 Bi
   0.0417293775119606    0.0989026501031453    0.6524147952638337 Bi
   0.1528404886230716    0.4322359834364786    0.6524147952638337 Bi
   0.2639515997341828    0.7655693167698119    0.6524147952638337 Bi
   0.3750627108452938    0.0989026501031453    0.6524147952638337 Bi
   0.4861738219564049    0.4322359834364786    0.6524147952638336 Bi
   0.5972849330675161    0.7655693167698119    0.6524147952638337 Bi
   0.7083960441786271    0.0989026501031453    0.6524147952638337 Bi
   0.8195071552897381    0.4322359834364786    0.6524147952638336 Bi
   0.9306182664008493    0.7655693167698119    0.6524147952638337 Bi
   0.0698929883692104    0.0177119012120866    0.5712969369621359 Bi
   0.1810040994803215    0.3510452345454199    0.5712969369621359 Bi
   0.2921152105914326    0.6843785678787532    0.5712969369621359 Bi
   0.4032263217025437    0.0177119012120866    0.5712969369621359 Bi
   0.5143374328136547    0.3510452345454199    0.5712969369621358 Bi
   0.6254485439247659    0.6843785678787532    0.5712969369621359 Bi
   0.7365596550358769    0.0177119012120866    0.5712969369621359 Bi
   0.8476707661469879    0.3510452345454199    0.5712969369621359 Bi
   0.9587818772580993    0.6843785678787532    0.5712969369621359 Bi
   0.3774835003129395    0.2130843516842581    0.5382540311549999 Bi
   0.4885946114240506    0.5464176850175915    0.5382540311549999 Bi
   0.5997057225351617    0.8797510183509248    0.5382540311549999 Bi
   0.7108168336462728    0.2130843516842581    0.5382540311549999 Bi
   0.8219279447573840    0.5464176850175915    0.5382540311549999 Bi
   0.9330390558684951    0.8797510183509248    0.5382540311549999 Bi
   0.0441501669796061    0.2130843516842581    0.5382540311549999 Bi
   0.1552612780907170    0.5464176850175915    0.5382540311549999 Bi
   0.2663723892018284    0.8797510183509248    0.5382540311549999 Bi
   0.0716255829817286    0.1200822615539804    0.4625394454123479 Bi
   0.1827366940928397    0.4534155948873136    0.4625394454123479 Bi
   0.2938478052039508    0.7867489282206470    0.4625394454123479 Bi
   0.4049589163150618    0.1200822615539804    0.4625394454123479 Bi
   0.5160700274261729    0.4534155948873136    0.4625394454123479 Bi
   0.6271811385372841    0.7867489282206470    0.4625394454123479 Bi
   0.7382922496483951    0.1200822615539804    0.4625394454123479 Bi
   0.8494033607595061    0.4534155948873136    0.4625394454123479 Bi
   0.9605144718706173    0.7867489282206470    0.4625394454123479 Bi
   0.3215398836851567    0.1525630717003315    0.9302071120816724 V
   0.4326509947962678    0.4858964050336648    0.9302071120816724 V
   0.5437621059073789    0.8192297383669981    0.9302071120816725 V
   0.6548732170184901    0.1525630717003315    0.9302071120816724 V
   0.7659843281296012    0.4858964050336648    0.9302071120816724 V
   0.8770954392407123    0.8192297383669981    0.9302071120816725 V
   0.9882065503518233    0.1525630717003315    0.9302071120816724 V
   0.0993176614629343    0.4858964050336648    0.9302071120816724 V
   0.2104287725740455    0.8192297383669981    0.9302071120816723 V
   0.1171814610794452    0.2961020051259543    0.9638918346896720 V
   0.2282925721905563    0.6294353384592876    0.9638918346896720 V
   0.3394036833016673    0.9627686717926210    0.9638918346896721 V
   0.4505147944127785    0.2961020051259543    0.9638918346896720 V
   0.5616259055238896    0.6294353384592876    0.9638918346896720 V
   0.6727370166350007    0.9627686717926210    0.9638918346896721 V
   0.7838481277461118    0.2961020051259543    0.9638918346896720 V
   0.8949592388572228    0.6294353384592876    0.9638918346896720 V
   0.0060703499683339    0.9627686717926210    0.9638918346896719 V
   0.3204537300379425    0.2627124335078729    0.8193579959500871 V
   0.4315648411490536    0.5960457668412061    0.8193579959500871 V
   0.5426759522601647    0.9293791001745395    0.8193579959500872 V
   0.6537870633712758    0.2627124335078729    0.8193579959500871 V
   0.7648981744823868    0.5960457668412061    0.8193579959500871 V
   0.8760092855934981    0.9293791001745395    0.8193579959500872 V
   0.9871203967046090    0.2627124335078729    0.8193579959500871 V
   0.0982315078157199    0.5960457668412061    0.8193579959500871 V
   0.2093426189268313    0.9293791001745395    0.8193579959500870 V
   0.3463143816415967    0.0692267282753524    0.8479528123325271 V
   0.4574254927527078    0.4025600616086857    0.8479528123325270 V
   0.5685366038638188    0.7358933949420190    0.8479528123325271 V
   0.6796477149749299    0.0692267282753524    0.8479528123325271 V
   0.7907588260860411    0.4025600616086857    0.8479528123325270 V
   0.9018699371971522    0.7358933949420190    0.8479528123325271 V
   0.0129810483082633    0.0692267282753524    0.8479528123325271 V
   0.1240921594193745    0.4025600616086857    0.8479528123325270 V
   0.2352032705304856    0.7358933949420190    0.8479528123325270 V
   0.2090103599397308    0.0413593600380001    0.7080905088960959 V
   0.3201214710508419    0.3746926933713334    0.7080905088960959 V
   0.4312325821619530    0.7080260267046667    0.7080905088960958 V
   0.5423436932730641    0.0413593600380001    0.7080905088960959 V
   0.6534548043841752    0.3746926933713334    0.7080905088960958 V
   0.7645659154952864    0.7080260267046667    0.7080905088960958 V
   0.8756770266063975    0.0413593600380001    0.7080905088960959 V
   0.9867881377175085    0.3746926933713334    0.7080905088960958 V
   0.0978992488286197    0.7080260267046667    0.7080905088960959 V
   0.3465451956158271    0.1808628621842237    0.7363539355483469 V
   0.4576563067269381    0.5141961955175570    0.7363539355483469 V
   0.5687674178380492    0.8475295288508904    0.7363539355483468 V
   0.6798785289491603    0.1808628621842237    0.7363539355483468 V
   0.7909896400602714    0.5141961955175570    0.7363539355483469 V
   0.9021007511713827    0.8475295288508904    0.7363539355483468 V
   0.0132118622824935    0.1808628621842237    0.7363539355483468 V
   0.1243229733936049    0.5141961955175570    0.7363539355483469 V
   0.2354340845047160    0.8475295288508904    0.7363539355483469 V
   0.2092411739139589    0.1529954939468714    0.5964916321119158 V
   0.3203522850250700    0.4863288272802048    0.5964916321119158 V
   0.4314633961361811    0.8196621606135380    0.5964916321119158 V
   0.5425745072472923    0.1529954939468714    0.5964916321119158 V
   0.6536856183584033    0.4863288272802048    0.5964916321119158 V
   0.7647967294695144    0.8196621606135380    0.5964916321119158 V
   0.8759078405806255    0.1529954939468714    0.5964916321119158 V
   0.9870189516917365    0.4863288272802048    0.5964916321119158 V
   0.0981300628028479    0.8196621606135380    0.5964916321119158 V
   0.3462129366287234    0.2928431220476819    0.6250864484943557 V
   0.4573240477398345    0.6261764553810151    0.6250864484943557 V
   0.5684351588509454    0.9595097887143486    0.6250864484943556 V
   0.6795462699620566    0.2928431220476819    0.6250864484943557 V
   0.7906573810731677    0.6261764553810151    0.6250864484943556 V
   0.9017684921842789    0.9595097887143486    0.6250864484943556 V
   0.0128796032953902    0.2928431220476819    0.6250864484943557 V
   0.1239907144065009    0.6261764553810151    0.6250864484943556 V
   0.2351018255176121    0.9595097887143486    0.6250864484943557 V
   0.2161518722538897    0.2594535504296004    0.4805526097547779 V
   0.3272629833650008    0.5927868837629338    0.4805526097547779 V
   0.4383740944761119    0.9261202170962670    0.4805526097547779 V
   0.5494852055872229    0.2594535504296004    0.4805526097547779 V
   0.6605963166983341    0.5927868837629338    0.4805526097547779 V
   0.7717074278094451    0.9261202170962670    0.4805526097547779 V
   0.8828185389205563    0.2594535504296004    0.4805526097547779 V
   0.9939296500316673    0.5927868837629338    0.4805526097547779 V
   0.1050407611427786    0.9261202170962670    0.4805526097547779 V
   0.2340156718703988    0.0696591505218923    0.5142373323627705 V
   0.3451267829815099    0.4029924838552256    0.5142373323627705 V
   0.4562378940926209    0.7363258171885588    0.5142373323627704 V
   0.5673490052037320    0.0696591505218923    0.5142373323627705 V
   0.6784601163148432    0.4029924838552256    0.5142373323627704 V
   0.7895712274259543    0.7363258171885588    0.5142373323627705 V
   0.9006823385370653    0.0696591505218923    0.5142373323627705 V
   0.0117934496481764    0.4029924838552256    0.5142373323627704 V
   0.1229045607592876    0.7363258171885588    0.5142373323627705 V
   0.2670500536818695    0.1595735973393640    0.9661216880551545 O
   0.3781611647929806    0.4929069306726974    0.9661216880551545 O
   0.4892722759040917    0.8262402640060307    0.9661216880551546 O
   0.6003833870152028    0.1595735973393640    0.9661216880551545 O
   0.7114944981263138    0.4929069306726974    0.9661216880551545 O
   0.8226056092374251    0.8262402640060307    0.9661216880551546 O
   0.9337167203485359    0.1595735973393640    0.9661216880551545 O
   0.0448278314596469    0.4929069306726974    0.9661216880551545 O
   0.1559389425707580    0.8262402640060307    0.9661216880551544 O
   0.1790443559984683    0.2859893447395409    0.9280215219181311 O
   0.2901554671095794    0.6193226780728741    0.9280215219181311 O
   0.4012665782206905    0.9526560114062075    0.9280215219181313 O
   0.5123776893318015    0.2859893447395409    0.9280215219181311 O
   0.6234888004429127    0.6193226780728741    0.9280215219181311 O
   0.7345999115540238    0.9526560114062075    0.9280215219181313 O
   0.8457110226651348    0.2859893447395409    0.9280215219181311 O
   0.9568221337762459    0.6193226780728741    0.9280215219181311 O
   0.0679332448873571    0.9526560114062075    0.9280215219181310 O
   0.3546078570111520    0.2272686647041145    0.9123740306050174 O
   0.4657189681222631    0.5606019980374478    0.9123740306050174 O
   0.5768300792333741    0.8939353313707811    0.9123740306050175 O
   0.6879411903444852    0.2272686647041145    0.9123740306050174 O
   0.7990523014555964    0.5606019980374478    0.9123740306050174 O
   0.9101634125667075    0.8939353313707811    0.9123740306050175 O
   0.0212745236778185    0.2272686647041145    0.9123740306050174 O
   0.1323856347889296    0.5606019980374478    0.9123740306050174 O
   0.2434967459000408    0.8939353313707811    0.9123740306050173 O
   0.0977197188628429    0.2177811089613397    0.9804062559554313 O
   0.2088308299739540    0.5511144422946730    0.9804062559554313 O
   0.3199419410850650    0.8844477756280064    0.9804062559554314 O
   0.4310530521961762    0.2177811089613397    0.9804062559554313 O
   0.5421641633072873    0.5511144422946730    0.9804062559554313 O
   0.6532752744183984    0.8844477756280064    0.9804062559554314 O
   0.7643863855295094    0.2177811089613397    0.9804062559554313 O
   0.8754974966406205    0.5511144422946730    0.9804062559554313 O
   0.9866086077517314    0.8844477756280064    0.9804062559554312 O
   0.0531227713710493    0.0094054707912194    0.9893264844355768 O
   0.1642338824821603    0.3427388041245528    0.9893264844355768 O
   0.2753449935932715    0.6760721374578861    0.9893264844355769 O
   0.3864561047043825    0.0094054707912194    0.9893264844355768 O
   0.4975672158154937    0.3427388041245528    0.9893264844355768 O
   0.6086783269266047    0.6760721374578861    0.9893264844355769 O
   0.7197894380377158    0.0094054707912194    0.9893264844355768 O
   0.8309005491488268    0.3427388041245528    0.9893264844355768 O
   0.9420116602599380    0.6760721374578861    0.9893264844355767 O
   0.2523798386625354    0.1213741622307202    0.9058822866077685 O
   0.3634909497736465    0.4547074955640535    0.9058822866077685 O
   0.4746020608847575    0.7880408288973868    0.9058822866077686 O
   0.5857131719958687    0.1213741622307202    0.9058822866077685 O
   0.6968242831069797    0.4547074955640535    0.9058822866077685 O
   0.8079353942180909    0.7880408288973868    0.9058822866077686 O
   0.9190465053292020    0.1213741622307202    0.9058822866077685 O
   0.0301576164403130    0.4547074955640535    0.9058822866077685 O
   0.1412687275514242    0.7880408288973868    0.9058822866077684 O
   0.2357479077822808    0.0138724355655366    0.9553985728764074 O
   0.3468590188933919    0.3472057688988699    0.9553985728764073 O
   0.4579701300045030    0.6805391022322033    0.9553985728764075 O
   0.5690812411156141    0.0138724355655366    0.9553985728764074 O
   0.6801923522267251    0.3472057688988699    0.9553985728764074 O
   0.7913034633378363    0.6805391022322033    0.9553985728764075 O
   0.9024145744489473    0.0138724355655366    0.9553985728764074 O
   0.0135256855600583    0.3472057688988699    0.9553985728764074 O
   0.1246367966711694    0.6805391022322033    0.9553985728764073 O
   0.0899463250072512    0.0990752186701000    0.9374984999314702 O
   0.2010574361183622    0.4324085520034334    0.9374984999314702 O
   0.3121685472294733    0.7657418853367667    0.9374984999314703 O
   0.4232796583405844    0.0990752186701000    0.9374984999314702 O
   0.5343907694516955    0.4324085520034334    0.9374984999314702 O
   0.6455018805628067    0.7657418853367667    0.9374984999314703 O
   0.7566129916739176    0.0990752186701000    0.9374984999314702 O
   0.8677241027850287    0.4324085520034334    0.9374984999314702 O
   0.9788352138961398    0.7657418853367667    0.9374984999314701 O
   0.2654470610124738    0.2764755882232707    0.8555317741789145 O
   0.3765581721235848    0.6098089215566039    0.8555317741789145 O
   0.4876692832346959    0.9431422548899372    0.8555317741789146 O
   0.5987803943458071    0.2764755882232707    0.8555317741789145 O
   0.7098915054569181    0.6098089215566039    0.8555317741789145 O
   0.8210026165680293    0.9431422548899372    0.8555317741789146 O
   0.9321137276791402    0.2764755882232707    0.8555317741789145 O
   0.0432248387902512    0.6098089215566039    0.8555317741789145 O
   0.1543359499013626    0.9431422548899372    0.8555317741789144 O
   0.0686492639151700    0.0547802964101963    0.8113352910742204 O
   0.1797603750262810    0.3881136297435296    0.8113352910742204 O
   0.2908714861373922    0.7214469630768630    0.8113352910742205 O
   0.4019825972485033    0.0547802964101963    0.8113352910742204 O
   0.5130937083596143    0.3881136297435296    0.8113352910742204 O
   0.6242048194707255    0.7214469630768630    0.8113352910742205 O
   0.7353159305818365    0.0547802964101963    0.8113352910742204 O
   0.8464270416929475    0.3881136297435296    0.8113352910742204 O
   0.9575381528040586    0.7214469630768630    0.8113352910742204 O
   0.2454381759579269    0.0019119529413684    0.8007420626175260 O
   0.3565492870690379    0.3352452862747017    0.8007420626175259 O
   0.4676603981801491    0.6685786196080350    0.8007420626175260 O
   0.5787715092912601    0.0019119529413684    0.8007420626175260 O
   0.6898826204023712    0.3352452862747017    0.8007420626175259 O
   0.8009937315134824    0.6685786196080350    0.8007420626175260 O
   0.9121048426245935    0.0019119529413684    0.8007420626175260 O
   0.0232159537357044    0.3352452862747017    0.8007420626175259 O
   0.1343270648468156    0.6685786196080350    0.8007420626175259 O
   0.4249239937935411    0.3293016514758967    0.8657306950494690 O
   0.5360351049046522    0.6626349848092300    0.8657306950494689 O
   0.6471462160157634    0.9959683181425634    0.8657306950494690 O
   0.7582573271268743    0.3293016514758967    0.8657306950494690 O
   0.8693684382379855    0.6626349848092300    0.8657306950494689 O
   0.9804795493490968    0.9959683181425634    0.8657306950494690 O
   0.0915906604602077    0.3293016514758967    0.8657306950494690 O
   0.2027017715713186    0.6626349848092300    0.8657306950494689 O
   0.3138128826824298    0.9959683181425634    0.8657306950494689 O
   0.0858846037988375    0.0990718648482390    0.8723225048008600 O
   0.1969957149099485    0.4324051981815723    0.8723225048008600 O
   0.3081068260210597    0.7657385315149056    0.8723225048008602 O
   0.4192179371321707    0.0990718648482390    0.8723225048008600 O
   0.5303290482432818    0.4324051981815723    0.8723225048008600 O
   0.6414401593543929    0.7657385315149056    0.8723225048008602 O
   0.7525512704655041    0.0990718648482390    0.8723225048008600 O
   0.8636623815766149    0.4324051981815723    0.8723225048008600 O
   0.9747734926877264    0.7657385315149056    0.8723225048008599 O
   0.2467332567466890    0.2346614068034693    0.7949024395970127 O
   0.3578443678578002    0.5679947401368026    0.7949024395970127 O
   0.4689554789689111    0.9013280734701360    0.7949024395970128 O
   0.5800665900800223    0.2346614068034693    0.7949024395970127 O
   0.6911777011911334    0.5679947401368026    0.7949024395970127 O
   0.8022888123022446    0.9013280734701360    0.7949024395970128 O
   0.9133999234133555    0.2346614068034693    0.7949024395970127 O
   0.0245110345244666    0.5679947401368026    0.7949024395970127 O
   0.1356221456355775    0.9013280734701360    0.7949024395970126 O
   0.2512619209543976    0.1278133593670698    0.8406123238933213 O
   0.3623730320655086    0.4611466927004031    0.8406123238933213 O
   0.4734841431766198    0.7944800260337365    0.8406123238933214 O
   0.5845952542877307    0.1278133593670698    0.8406123238933214 O
   0.6957063653988420    0.4611466927004031    0.8406123238933213 O
   0.8068174765099531    0.7944800260337365    0.8406123238933214 O
   0.9179285876210642    0.1278133593670698    0.8406123238933214 O
   0.0290396987321753    0.4611466927004031    0.8406123238933213 O
   0.1401508098432864    0.7944800260337365    0.8406123238933213 O
   0.0819676211486600    0.2041172973132891    0.8266953938931308 O
   0.1930787322597711    0.5374506306466224    0.8266953938931308 O
   0.3041898433708822    0.8707839639799556    0.8266953938931310 O
   0.4153009544819933    0.2041172973132891    0.8266953938931308 O
   0.5264120655931044    0.5374506306466224    0.8266953938931308 O
   0.6375231767042155    0.8707839639799556    0.8266953938931310 O
   0.7486342878153266    0.2041172973132891    0.8266953938931308 O
   0.8597453989264375    0.5374506306466224    0.8266953938931308 O
   0.9708565100375486    0.8707839639799556    0.8266953938931307 O
   0.1533052907689851    0.0562100897923851    0.7445614531677862 O
   0.2644164018800962    0.3895434231257184    0.7445614531677862 O
   0.3755275129912073    0.7228767564590518    0.7445614531677863 O
   0.4866386241023184    0.0562100897923851    0.7445614531677862 O
   0.5977497352134294    0.3895434231257184    0.7445614531677862 O
   0.7088608463245406    0.7228767564590518    0.7445614531677863 O
   0.8199719574356515    0.0562100897923851    0.7445614531677862 O
   0.9310830685467626    0.3895434231257184    0.7445614531677862 O
   0.0421941796578740    0.7228767564590518    0.7445614531677861 O
   0.0689169297865730    0.1660121282631711    0.6998829904433250 O
   0.1800280408976841    0.4993454615965044    0.6998829904433250 O
   0.2911391520087952    0.8326787949298378    0.6998829904433250 O
   0.4022502631199063    0.1660121282631711    0.6998829904433250 O
   0.5133613742310174    0.4993454615965044    0.6998829904433250 O
   0.6244724853421285    0.8326787949298378    0.6998829904433250 O
   0.7355835964532396    0.1660121282631711    0.6998829904433250 O
   0.8466947075643505    0.4993454615965044    0.6998829904433250 O
   0.9578058186754618    0.8326787949298378    0.6998829904433250 O
   0.2453561904511850    0.1136481436911699    0.6895281507163210 O
   0.3564673015622961    0.4469814770245032    0.6895281507163210 O
   0.4675784126734072    0.7803148103578366    0.6895281507163210 O
   0.5786895237845184    0.1136481436911699    0.6895281507163210 O
   0.6898006348956294    0.4469814770245032    0.6895281507163210 O
   0.8009117460067405    0.7803148103578366    0.6895281507163210 O
   0.9120228571178516    0.1136481436911699    0.6895281507163210 O
   0.0231339682289624    0.4469814770245032    0.6895281507163210 O
   0.1342450793400738    0.7803148103578366    0.6895281507163210 O
   0.3101993634377033    0.1085740743643839    0.7549162928947901 O
   0.4213104745488143    0.4419074076977173    0.7549162928947901 O
   0.5324215856599255    0.7752407410310506    0.7549162928947902 O
   0.6435326967710365    0.1085740743643839    0.7549162928947901 O
   0.7546438078821478    0.4419074076977173    0.7549162928947901 O
   0.8657549189932587    0.7752407410310506    0.7549162928947902 O
   0.9768660301043699    0.1085740743643839    0.7549162928947901 O
   0.0879771412154808    0.4419074076977173    0.7549162928947901 O
   0.1990882523265922    0.7752407410310506    0.7549162928947900 O
   0.0871379461872741    0.2090455483722787    0.7608224951955086 O
   0.1982490572983852    0.5423788817056120    0.7608224951955086 O
   0.3093601684094963    0.8757122150389454    0.7608224951955087 O
   0.4204712795206075    0.2090455483722787    0.7608224951955086 O
   0.5315823906317185    0.5423788817056120    0.7608224951955086 O
   0.6426935017428297    0.8757122150389454    0.7608224951955087 O
   0.7538046128539406    0.2090455483722787    0.7608224951955086 O
   0.8649157239650517    0.5423788817056120    0.7608224951955086 O
   0.9760268350761627    0.8757122150389454    0.7608224951955086 O
   0.1350842752016149    0.0131766788499443    0.6836219492489343 O
   0.2461953863127260    0.3465100121832775    0.6836219492489343 O
   0.3573064974238370    0.6798433455166109    0.6836219492489343 O
   0.4684176085349482    0.0131766788499443    0.6836219492489343 O
   0.5795287196460593    0.3465100121832775    0.6836219492489342 O
   0.6906398307571704    0.6798433455166109    0.6836219492489343 O
   0.8017509418682814    0.0131766788499443    0.6836219492489343 O
   0.9128620529793925    0.3465100121832775    0.6836219492489342 O
   0.0239731640905037    0.6798433455166109    0.6836219492489343 O
   0.2534000578190895    0.2397585859846128    0.7292769743621126 O
   0.3645111689302005    0.5730919193179461    0.7292769743621126 O
   0.4756222800413116    0.9064252526512795    0.7292769743621126 O
   0.5867333911524228    0.2397585859846128    0.7292769743621126 O
   0.6978445022635338    0.5730919193179461    0.7292769743621126 O
   0.8089556133746451    0.9064252526512795    0.7292769743621127 O
   0.9200667244857560    0.2397585859846128    0.7292769743621126 O
   0.0311778355968670    0.5730919193179461    0.7292769743621126 O
   0.1422889467079782    0.9064252526512795    0.7292769743621125 O
   0.4132666080142440    0.3157969745709436    0.7151674700823302 O
   0.5243777191253550    0.6491303079042768    0.7151674700823303 O
   0.6354888302364661    0.9824636412376101    0.7151674700823302 O
   0.7465999413475771    0.3157969745709436    0.7151674700823303 O
   0.8577110524586884    0.6491303079042768    0.7151674700823302 O
   0.9688221635697993    0.9824636412376101    0.7151674700823302 O
   0.0799332746809105    0.3157969745709436    0.7151674700823303 O
   0.1910443857920214    0.6491303079042768    0.7151674700823302 O
   0.3021554969031328    0.9824636412376101    0.7151674700823302 O
   0.1535729566403874    0.1674419216453575    0.6331091525368907 O
   0.2646840677514985    0.5007752549786908    0.6331091525368907 O
   0.3757951788626096    0.8341085883120241    0.6331091525368906 O
   0.4869062899737207    0.1674419216453575    0.6331091525368907 O
   0.5980174010848317    0.5007752549786908    0.6331091525368906 O
   0.7091285121959430    0.8341085883120241    0.6331091525368907 O
   0.8202396233070539    0.1674419216453575    0.6331091525368907 O
   0.9313507344181650    0.5007752549786908    0.6331091525368906 O
   0.0424618455292760    0.8341085883120241    0.6331091525368907 O
   0.4012196039875257    0.2790799631656165    0.5889126694321968 O
   0.5123307150986367    0.6124132964989498    0.5889126694321968 O
   0.6234418262097479    0.9457466298322832    0.5889126694321968 O
   0.7345529373208589    0.2790799631656165    0.5889126694321968 O
   0.8456640484319700    0.6124132964989498    0.5889126694321967 O
   0.9567751595430811    0.9457466298322832    0.5889126694321968 O
   0.0678862706541921    0.2790799631656165    0.5889126694321968 O
   0.1789973817653032    0.6124132964989498    0.5889126694321967 O
   0.2901084928764144    0.9457466298322832    0.5889126694321968 O
   0.2417426712064583    0.2262538999129904    0.5787137485616423 O
   0.3528537823175694    0.5595872332463238    0.5787137485616423 O
   0.4639648934286804    0.8929205665796571    0.5787137485616423 O
   0.5750760045397916    0.2262538999129904    0.5787137485616423 O
   0.6861871156509027    0.5595872332463238    0.5787137485616423 O
   0.7972982267620138    0.8929205665796571    0.5787137485616423 O
   0.9084093378731248    0.2262538999129904    0.5787137485616423 O
   0.0195204489842360    0.5595872332463238    0.5787137485616423 O
   0.1306315600953472    0.8929205665796571    0.5787137485616423 O
   0.3101173779309615    0.2203102651141854    0.6437023809935852 O
   0.4212284890420726    0.5536435984475186    0.6437023809935852 O
   0.5323396001531836    0.8869769317808521    0.6437023809935852 O
   0.6434507112642949    0.2203102651141854    0.6437023809935852 O
   0.7545618223754059    0.5536435984475186    0.6437023809935851 O
   0.8656729334865170    0.8869769317808521    0.6437023809935852 O
   0.9767840445976280    0.2203102651141854    0.6437023809935852 O
   0.0878951557087391    0.5536435984475186    0.6437023809935852 O
   0.1990062668198502    0.8869769317808521    0.6437023809935852 O
   0.4199334090866428    0.3208941537520894    0.6495420048474301 O
   0.5310445201977539    0.6542274870854227    0.6495420048474301 O
   0.6421556313088650    0.9875608204187561    0.6495420048474301 O
   0.7532667424199760    0.3208941537520894    0.6495420048474301 O
   0.8643778535310872    0.6542274870854227    0.6495420048474300 O
   0.9754889646421984    0.9875608204187561    0.6495420048474301 O
   0.0866000757533094    0.3208941537520894    0.6495420048474301 O
   0.1977111868644206    0.6542274870854227    0.6495420048474300 O
   0.3088222979755317    0.9875608204187561    0.6495420048474301 O
   0.1363376175900492    0.1231503623739840    0.5721219396435828 O
   0.2474487287011603    0.4564836957073173    0.5721219396435828 O
   0.3585598398122714    0.7898170290406507    0.5721219396435828 O
   0.4696709509233825    0.1231503623739840    0.5721219396435828 O
   0.5807820620344937    0.4564836957073173    0.5721219396435828 O
   0.6918931731456047    0.7898170290406507    0.5721219396435828 O
   0.8030042842567158    0.1231503623739840    0.5721219396435828 O
   0.9141153953678268    0.4564836957073173    0.5721219396435828 O
   0.0252265064789379    0.7898170290406507    0.5721219396435828 O
   0.1402546002402298    0.0181049299089363    0.6177490505513120 O
   0.2513657113513409    0.3514382632422696    0.6177490505513120 O
   0.3624768224624519    0.6847715965756030    0.6177490505513120 O
   0.4735879335735631    0.0181049299089363    0.6177490505513120 O
   0.5846990446846743    0.3514382632422696    0.6177490505513120 O
   0.6958101557957853    0.6847715965756030    0.6177490505513120 O
   0.8069212669068964    0.0181049299089363    0.6177490505513120 O
   0.9180323780180074    0.3514382632422696    0.6177490505513120 O
   0.0291434891291185    0.6847715965756030    0.6177490505513120 O
   0.3042936337678247    0.0944088678551532    0.6038321205511286 O
   0.4154047448789358    0.4277422011884865    0.6038321205511287 O
   0.5265158559900469    0.7610755345218199    0.6038321205511286 O
   0.6376269671011580    0.0944088678551532    0.6038321205511286 O
   0.7487380782122692    0.4277422011884865    0.6038321205511286 O
   0.8598491893233802    0.7610755345218199    0.6038321205511286 O
   0.9709603004344913    0.0944088678551532    0.6038321205511286 O
   0.0820714115456023    0.4277422011884865    0.6038321205511286 O
   0.1931825226567137    0.7610755345218199    0.6038321205511286 O
   0.1542889756682002    0.2695662066493463    0.5164229216929801 O
   0.2654000867793113    0.6028995399826795    0.5164229216929801 O
   0.3765111978904225    0.9362328733160129    0.5164229216929801 O
   0.4876223090015335    0.2695662066493463    0.5164229216929801 O
   0.5987334201126445    0.6028995399826795    0.5164229216929800 O
   0.7098445312237557    0.9362328733160129    0.5164229216929801 O
   0.8209556423348667    0.2695662066493463    0.5164229216929801 O
   0.9320667534459777    0.6028995399826795    0.5164229216929801 O
   0.0431778645570891    0.9362328733160129    0.5164229216929801 O
   0.2885055002070212    0.0626486207161898    0.4783227555559566 O
   0.3996166113181323    0.3959819540495231    0.4783227555559566 O
   0.5107277224292434    0.7293152873828563    0.4783227555559566 O
   0.6218388335403544    0.0626486207161898    0.4783227555559566 O
   0.7329499446514656    0.3959819540495231    0.4783227555559565 O
   0.8440610557625766    0.7293152873828563    0.4783227555559566 O
   0.9551721668736877    0.0626486207161898    0.4783227555559566 O
   0.0662832779847988    0.3959819540495231    0.4783227555559565 O
   0.1773943890959100    0.7293152873828563    0.4783227555559566 O
   0.1245025016927098    0.0044411090942141    0.4640381876556799 O
   0.2356136128038208    0.3377744424275474    0.4640381876556799 O
   0.3467247239149320    0.6711077757608807    0.4640381876556799 O
   0.4578358350260430    0.0044411090942141    0.4640381876556799 O
   0.5689469461371541    0.3377744424275474    0.4640381876556799 O
   0.6800580572482653    0.6711077757608807    0.4640381876556799 O
   0.7911691683593763    0.0044411090942141    0.4640381876556799 O
   0.9022802794704873    0.3377744424275474    0.4640381876556799 O
   0.0133913905815986    0.6711077757608807    0.4640381876556799 O
   0.3120588079888474    0.3282868866847726    0.5320704130060937 O
   0.4231699190999586    0.6616202200181059    0.5320704130060937 O
   0.5342810302110697    0.9949535533514393    0.5320704130060937 O
   0.6453921413221807    0.3282868866847726    0.5320704130060937 O
   0.7565032524332919    0.6616202200181059    0.5320704130060936 O
   0.8676143635444029    0.9949535533514393    0.5320704130060937 O
   0.9787254746555141    0.3282868866847726    0.5320704130060937 O
   0.0898365857666250    0.6616202200181059    0.5320704130060937 O
   0.2009476968777362    0.9949535533514393    0.5320704130060937 O
   0.3031757160596846    0.1008480649915029    0.5385621578366814 O
   0.4142868271707956    0.4341813983248362    0.5385621578366815 O
   0.5253979382819067    0.7675147316581694    0.5385621578366814 O
   0.6365090493930178    0.1008480649915029    0.5385621578366814 O
   0.7476201605041290    0.4341813983248362    0.5385621578366814 O
   0.8587312716152400    0.7675147316581694    0.5385621578366814 O
   0.9698423827263511    0.1008480649915029    0.5385621578366814 O
   0.0809534938374621    0.4341813983248362    0.5385621578366814 O
   0.1920646049485735    0.7675147316581694    0.5385621578366814 O
   0.1690994500178413    0.2128167564310083    0.4551179600088659 O
   0.2802105611289524    0.5461500897643417    0.4551179600088659 O
   0.3913216722400635    0.8794834230976749    0.4551179600088658 O
   0.5024327833511746    0.2128167564310083    0.4551179600088659 O
   0.6135438944622856    0.5461500897643417    0.4551179600088658 O
   0.7246550055733968    0.8794834230976749    0.4551179600088659 O
   0.8357661166845078    0.2128167564310083    0.4551179600088659 O
   0.9468772277956189    0.5461500897643417    0.4551179600088658 O
   0.0579883389067302    0.8794834230976749    0.4551179600088659 O
   0.1322758963816355    0.1231470085521230    0.5069459445129726 O
   0.2433870074927466    0.4564803418854563    0.5069459445129726 O
   0.3544981186038577    0.7898136752187896    0.5069459445129726 O
   0.4656092297149688    0.1231470085521230    0.5069459445129726 O
   0.5767203408260798    0.4564803418854563    0.5069459445129725 O
   0.6878314519371911    0.7898136752187896    0.5069459445129726 O
   0.7989425630483019    0.1231470085521230    0.5069459445129726 O
   0.9100536741594130    0.4564803418854563    0.5069459445129726 O
   0.0211647852705241    0.7898136752187896    0.5069459445129726 O
   0.3198076469399400    0.2083497916566888    0.4890458715680355 O
   0.4309187580510510    0.5416831249900221    0.4890458715680355 O
   0.5420298691621622    0.8750164583233554    0.4890458715680355 O
   0.6531409802732732    0.2083497916566888    0.4890458715680355 O
   0.7642520913843844    0.5416831249900221    0.4890458715680355 O
   0.8753632024954954    0.8750164583233554    0.4890458715680355 O
   0.9864743136066065    0.2083497916566888    0.4890458715680355 O
   0.0975854247177177    0.5416831249900221    0.4890458715680355 O
   0.2086965358288289    0.8750164583233554    0.4890458715680355 O
