V132 Bi144 O540
1.0
  21.9216399192000004    0.0000000000000000    0.0000000000000000
  -0.0006478336000004   24.6265795549999993    0.0000000000000000
   0.0032466899999974    0.3881835740999993   38.3797081991000013
Bi V O
144 132 540
direct
   0.0408636973682398    0.2834051888955543    0.0758469894053633 Bi
   0.2075303640349065    0.7834051888955542    0.0758469894053633 Bi
   0.3741970307015732    0.2834051888955543    0.0758469894053633 Bi
   0.5408636973682399    0.7834051888955542    0.0758469894053633 Bi
   0.7075303640349064    0.2834051888955543    0.0758469894053633 Bi
   0.8741970307015732    0.7834051888955542    0.0758469894053633 Bi
   0.3017502538810800    0.1773407717992625    0.0168954573531903 Bi
   0.4684169205477467    0.6773407717992624    0.0168954573531903 Bi
   0.6350835872144134    0.1773407717992625    0.0168954573531903 Bi
   0.8017502538810799    0.6773407717992624    0.0168954573531903 Bi
   0.9684169205477466    0.1773407717992625    0.0168954573531903 Bi
   0.1350835872144134    0.6773407717992624    0.0168954573531903 Bi
   0.2080655688045783    0.0342497086768559    0.0361471764788006 Bi
   0.3747322354712451    0.5342497086768559    0.0361471764788006 Bi
   0.5413989021379115    0.0342497086768559    0.0361471764788006 Bi
   0.7080655688045783    0.5342497086768559    0.0361471764788006 Bi
   0.8747322354712449    0.0342497086768559    0.0361471764788006 Bi
   0.0413989021379115    0.5342497086768559    0.0361471764788006 Bi
   0.1250465919553977    0.3962033493240905    0.0534321263535303 Bi
   0.2917132586220643    0.8962033493240905    0.0534321263535303 Bi
   0.4583799252887309    0.3962033493240905    0.0534321263535303 Bi
   0.6250465919553977    0.8962033493240905    0.0534321263535303 Bi
   0.7917132586220641    0.3962033493240905    0.0534321263535303 Bi
   0.9583799252887309    0.8962033493240905    0.0534321263535303 Bi
   0.8773066998360479    0.2280044737440561    0.1700058453028733 Bi
   0.0439733665027146    0.7280044737440561    0.1700058453028733 Bi
   0.2106400331693813    0.2280044737440561    0.1700058453028733 Bi
   0.3773066998360479    0.7280044737440561    0.1700058453028733 Bi
   0.5439733665027147    0.2280044737440561    0.1700058453028733 Bi
   0.7106400331693812    0.7280044737440561    0.1700058453028733 Bi
   0.1184187158805773    0.1405876923839077    0.1052444468328771 Bi
   0.2850853825472440    0.6405876923839077    0.1052444468328771 Bi
   0.4517520492139107    0.1405876923839077    0.1052444468328771 Bi
   0.6184187158805774    0.6405876923839077    0.1052444468328771 Bi
   0.7850853825472439    0.1405876923839077    0.1052444468328771 Bi
   0.9517520492139105    0.6405876923839077    0.1052444468328771 Bi
   0.0432355864095588    0.9980041001180002    0.1202933355558183 Bi
   0.2099022530762254    0.4980041001180002    0.1202933355558183 Bi
   0.3765689197428920    0.9980041001180002    0.1202933355558183 Bi
   0.5432355864095588    0.4980041001180002    0.1202933355558183 Bi
   0.7099022530762255    0.9980041001180002    0.1202933355558183 Bi
   0.8765689197428920    0.4980041001180002    0.1202933355558183 Bi
   0.9583464269046090    0.3622345787685247    0.1463226338235940 Bi
   0.1250130935712757    0.8622345787685248    0.1463226338235940 Bi
   0.2916797602379423    0.3622345787685247    0.1463226338235940 Bi
   0.4583464269046090    0.8622345787685248    0.1463226338235940 Bi
   0.6250130935712757    0.3622345787685247    0.1463226338235940 Bi
   0.7916797602379423    0.8622345787685248    0.1463226338235940 Bi
   0.7090021829005355    0.1817706434602852    0.2611989570979614 Bi
   0.8756688495672021    0.6817706434602852    0.2611989570979614 Bi
   0.0423355162338688    0.1817706434602852    0.2611989570979614 Bi
   0.2090021829005355    0.6817706434602852    0.2611989570979614 Bi
   0.3756688495672021    0.1817706434602852    0.2611989570979614 Bi
   0.5423355162338687    0.6817706434602852    0.2611989570979614 Bi
   0.9579625790980567    0.0875896361983588    0.1936902568055898 Bi
   0.1246292457647234    0.5875896361983589    0.1936902568055898 Bi
   0.2912959124313900    0.0875896361983588    0.1936902568055898 Bi
   0.4579625790980567    0.5875896361983589    0.1936902568055898 Bi
   0.6246292457647233    0.0875896361983588    0.1936902568055898 Bi
   0.7912959124313901    0.5875896361983589    0.1936902568055898 Bi
   0.8734155598156188    0.9537864688098994    0.2153302674580956 Bi
   0.0400822264822855    0.4537864688098993    0.2153302674580956 Bi
   0.2067488931489521    0.9537864688098994    0.2153302674580956 Bi
   0.3734155598156188    0.4537864688098993    0.2153302674580956 Bi
   0.5400822264822853    0.9537864688098994    0.2153302674580956 Bi
   0.7067488931489521    0.4537864688098993    0.2153302674580956 Bi
   0.7918434554915827    0.3181971003124627    0.2392546369214000 Bi
   0.9585101221582494    0.8181971003124626    0.2392546369214000 Bi
   0.1251767888249160    0.3181971003124627    0.2392546369214000 Bi
   0.2918434554915826    0.8181971003124626    0.2392546369214000 Bi
   0.4585101221582492    0.3181971003124627    0.2392546369214000 Bi
   0.6251767888249159    0.8181971003124626    0.2392546369214000 Bi
   0.5420374374019479    0.1396830983016424    0.3517642741944073 Bi
   0.7087041040686145    0.6396830983016424    0.3517642741944073 Bi
   0.8753707707352811    0.1396830983016424    0.3517642741944073 Bi
   0.0420374374019478    0.6396830983016424    0.3517642741944073 Bi
   0.2087041040686144    0.1396830983016424    0.3517642741944073 Bi
   0.3753707707352811    0.6396830983016424    0.3517642741944073 Bi
   0.7909978317661274    0.0455020905397105    0.2842555749020395 Bi
   0.9576644984327940    0.5455020905397105    0.2842555749020395 Bi
   0.1243311650994607    0.0455020905397105    0.2842555749020395 Bi
   0.2909978317661274    0.5455020905397105    0.2842555749020395 Bi
   0.4576644984327939    0.0455020905397105    0.2842555749020395 Bi
   0.6243311650994605    0.5455020905397105    0.2842555749020395 Bi
   0.7081565235084060    0.9090756266875326    0.3061999240786069 Bi
   0.8748231901750727    0.4090756266875326    0.3061999240786069 Bi
   0.0414898568417393    0.9090756266875326    0.3061999240786069 Bi
   0.2081565235084060    0.4090756266875326    0.3061999240786069 Bi
   0.3748231901750725    0.9090756266875326    0.3061999240786069 Bi
   0.5414898568417392    0.4090756266875326    0.3061999240786069 Bi
   0.6265844448510505    0.2734862651900966    0.3301242795419030 Bi
   0.7932511115177170    0.7734862651900967    0.3301242795419030 Bi
   0.9599177781843837    0.2734862651900966    0.3301242795419030 Bi
   0.1265844448510504    0.7734862651900967    0.3301242795419030 Bi
   0.2932511115177170    0.2734862651900966    0.3301242795419030 Bi
   0.4599177781843836    0.7734862651900967    0.3301242795419030 Bi
   0.3815812859527586    0.0866850381160933    0.4402100921671208 Bi
   0.5482479526194253    0.5866850381160934    0.4402100921671208 Bi
   0.7149146192860919    0.0866850381160933    0.4402100921671208 Bi
   0.8815812859527586    0.5866850381160934    0.4402100921671208 Bi
   0.0482479526194252    0.0866850381160933    0.4402100921671208 Bi
   0.2149146192860919    0.5866850381160934    0.4402100921671208 Bi
   0.6226932873306206    0.9992682527559448    0.3754487016971252 Bi
   0.7893599539972873    0.4992682527559448    0.3754487016971252 Bi
   0.9560266206639539    0.9992682527559448    0.3754487016971252 Bi
   0.1226932873306206    0.4992682527559448    0.3754487016971252 Bi
   0.2893599539972872    0.9992682527559448    0.3754487016971252 Bi
   0.4560266206639539    0.4992682527559448    0.3754487016971252 Bi
   0.5416536052620571    0.8650381627314738    0.3991318981764069 Bi
   0.7083202719287238    0.3650381627314738    0.3991318981764069 Bi
   0.8749869385953903    0.8650381627314738    0.3991318981764069 Bi
   0.0416536052620571    0.3650381627314738    0.3991318981764069 Bi
   0.2083202719287237    0.8650381627314738    0.3991318981764069 Bi
   0.3749869385953903    0.3650381627314738    0.3991318981764069 Bi
   0.4567644182571116    0.2292686338819992    0.4251612114441803 Bi
   0.6234310849237783    0.7292686338819993    0.4251612114441803 Bi
   0.7900977515904448    0.2292686338819992    0.4251612114441803 Bi
   0.9567644182571116    0.7292686338819993    0.4251612114441803 Bi
   0.1234310849237781    0.2292686338819992    0.4251612114441803 Bi
   0.2900977515904448    0.7292686338819993    0.4251612114441803 Bi
   0.1982496892855852    0.0499319427007374    0.5285591136468100 Bi
   0.3649163559522519    0.5499319427007374    0.5285591136468100 Bi
   0.5315830226189184    0.0499319427007374    0.5285591136468100 Bi
   0.6982496892855852    0.5499319427007374    0.5285591136468100 Bi
   0.8649163559522518    0.0499319427007374    0.5285591136468100 Bi
   0.0315830226189185    0.5499319427007374    0.5285591136468100 Bi
   0.4591362916317562    0.9438675381044448    0.4696075565946385 Bi
   0.6258029582984228    0.4438675381044447    0.4696075565946385 Bi
   0.7924696249650894    0.9438675381044448    0.4696075565946385 Bi
   0.9591362916317562    0.4438675381044447    0.4696075565946385 Bi
   0.1258029582984228    0.9438675381044448    0.4696075565946385 Bi
   0.2924696249650894    0.4438675381044447    0.4696075565946385 Bi
   0.3749534328779346    0.8310693901759078    0.4920224096464710 Bi
   0.5416200995446012    0.3310693901759078    0.4920224096464710 Bi
   0.7082867662112677    0.8310693901759078    0.4920224096464710 Bi
   0.8749534328779345    0.3310693901759078    0.4920224096464710 Bi
   0.0416200995446011    0.8310693901759078    0.4920224096464710 Bi
   0.2082867662112677    0.3310693901759078    0.4920224096464710 Bi
   0.2919344706954212    0.1930230348231423    0.5093073515212005 Bi
   0.4586011373620879    0.6930230348231423    0.5093073515212005 Bi
   0.6252678040287545    0.1930230348231423    0.5093073515212005 Bi
   0.7919344706954212    0.6930230348231423    0.5093073515212005 Bi
   0.9586011373620877    0.1930230348231423    0.5093073515212005 Bi
   0.1252678040287544    0.6930230348231423    0.5093073515212005 Bi
   0.0420572390208324    0.0485803848406973    0.0313537921006257 V
   0.2087239056874991    0.5485803848406973    0.0313537921006257 V
   0.3753905723541657    0.0485803848406973    0.0313537921006257 V
   0.5420572390208325    0.5485803848406973    0.0313537921006257 V
   0.7087239056874990    0.0485803848406973    0.0313537921006257 V
   0.8753905723541657    0.5485803848406973    0.0313537921006257 V
   0.2918371910014689    0.4099739412756708    0.0553661164940479 V
   0.4585038576681356    0.9099739412756709    0.0553661164940479 V
   0.6251705243348021    0.4099739412756708    0.0553661164940479 V
   0.7918371910014689    0.9099739412756709    0.0553661164940479 V
   0.9585038576681355    0.4099739412756708    0.0553661164940479 V
   0.1251705243348022    0.9099739412756709    0.0553661164940479 V
   0.2066401934538234    0.2692363387225963    0.0791086659666451 V
   0.3733068601204901    0.7692363387225963    0.0791086659666451 V
   0.5399735267871567    0.2692363387225963    0.0791086659666451 V
   0.7066401934538235    0.7692363387225963    0.0791086659666451 V
   0.8733068601204900    0.2692363387225963    0.0791086659666451 V
   0.0399735267871566    0.7692363387225963    0.0791086659666451 V
   0.8768244115312107    0.0004054667949742    0.1241860947700535 V
   0.0434910781978773    0.5004054667949742    0.1241860947700535 V
   0.2101577448645440    0.0004054667949742    0.1241860947700535 V
   0.3768244115312107    0.5004054667949742    0.1241860947700535 V
   0.5434910781978772    0.0004054667949742    0.1241860947700535 V
   0.7101577448645439    0.5004054667949742    0.1241860947700535 V
   0.1246997838485443    0.3646593070146287    0.1477153729880488 V
   0.2913664505152110    0.8646593070146288    0.1477153729880488 V
   0.4580331171818776    0.3646593070146287    0.1477153729880488 V
   0.6246997838485443    0.8646593070146288    0.1477153729880488 V
   0.7913664505152109    0.3646593070146287    0.1477153729880488 V
   0.9580331171818776    0.8646593070146288    0.1477153729880488 V
   0.0416761840195653    0.2284095404532682    0.1700992221303205 V
   0.2083428506862320    0.7284095404532682    0.1700992221303205 V
   0.3750095173528986    0.2284095404532682    0.1700992221303205 V
   0.5416761840195653    0.7284095404532682    0.1700992221303205 V
   0.7083428506862319    0.2284095404532682    0.1700992221303205 V
   0.8750095173528986    0.7284095404532682    0.1700992221303205 V
   0.9528842251442936    0.1342794112378948    0.1015861788427159 V
   0.1195508918109602    0.6342794112378948    0.1015861788427159 V
   0.2862175584776268    0.1342794112378948    0.1015861788427159 V
   0.4528842251442936    0.6342794112378948    0.1015861788427159 V
   0.6195508918109602    0.1342794112378948    0.1015861788427159 V
   0.7862175584776269    0.6342794112378948    0.1015861788427159 V
   0.7083437806099113    0.9558890390911529    0.2156309527842078 V
   0.8750104472765781    0.4558890390911529    0.2156309527842078 V
   0.0416771139432447    0.9558890390911529    0.2156309527842078 V
   0.2083437806099114    0.4558890390911529    0.2156309527842078 V
   0.3750104472765780    0.9558890390911529    0.2156309527842078 V
   0.5416771139432446    0.4558890390911529    0.2156309527842078 V
   0.9579192444983579    0.3180559452468900    0.2389101089510243 V
   0.1245859111650245    0.8180559452468902    0.2389101089510243 V
   0.2912525778316911    0.3180559452468900    0.2389101089510243 V
   0.4579192444983578    0.8180559452468902    0.2389101089510243 V
   0.6245859111650244    0.3180559452468900    0.2389101089510243 V
   0.7912525778316911    0.8180559452468902    0.2389101089510243 V
   0.8753779894190796    0.1812183262964301    0.2616692988040347 V
   0.0420446560857463    0.6812183262964300    0.2616692988040347 V
   0.2087113227524129    0.1812183262964301    0.2616692988040347 V
   0.3753779894190796    0.6812183262964300    0.2616692988040347 V
   0.5420446560857463    0.1812183262964301    0.2616692988040347 V
   0.7087113227524130    0.6812183262964300    0.2616692988040347 V
   0.7906345820391324    0.0902668468891078    0.1925661202119122 V
   0.9573012487057990    0.5902668468891077    0.1925661202119122 V
   0.1239679153724657    0.0902668468891078    0.1925661202119122 V
   0.2906345820391324    0.5902668468891077    0.1925661202119122 V
   0.4573012487057989    0.0902668468891078    0.1925661202119122 V
   0.6239679153724657    0.5902668468891077    0.1925661202119122 V
   0.5420807520016387    0.9092167742531101    0.3065444370489777 V
   0.7087474186683054    0.4092167742531100    0.3065444370489777 V
   0.8754140853349721    0.9092167742531101    0.3065444370489777 V
   0.0420807520016388    0.4092167742531100    0.3065444370489777 V
   0.2087474186683054    0.9092167742531101    0.3065444370489777 V
   0.3754140853349720    0.4092167742531100    0.3065444370489777 V
   0.7916562415567533    0.2713836874088476    0.3298235792157934 V
   0.9583229082234199    0.7713836874088476    0.3298235792157934 V
   0.1249895748900866    0.2713836874088476    0.3298235792157934 V
   0.2916562415567533    0.7713836874088476    0.3298235792157934 V
   0.4583229082234199    0.2713836874088476    0.3298235792157934 V
   0.6249895748900864    0.7713836874088476    0.3298235792157934 V
   0.7093654119608643    0.1370058651108935    0.3528884257880900 V
   0.8760320786275310    0.6370058651108934    0.3528884257880900 V
   0.0426987452941976    0.1370058651108935    0.3528884257880900 V
   0.2093654119608643    0.6370058651108934    0.3528884257880900 V
   0.3760320786275309    0.1370058651108935    0.3528884257880900 V
   0.5426987452941976    0.6370058651108934    0.3528884257880900 V
   0.6246220302475862    0.0460543927035719    0.2837852331959664 V
   0.7912886969142530    0.5460543927035719    0.2837852331959664 V
   0.9579553635809195    0.0460543927035719    0.2837852331959664 V
   0.1246220302475862    0.5460543927035719    0.2837852331959664 V
   0.2912886969142528    0.0460543927035719    0.2837852331959664 V
   0.4579553635809194    0.5460543927035719    0.2837852331959664 V
   0.3753002108181253    0.8626134119853730    0.3977391740119497 V
   0.5419668774847920    0.3626134119853730    0.3977391740119497 V
   0.7086335441514586    0.8626134119853730    0.3977391740119497 V
   0.8753002108181254    0.3626134119853730    0.3977391740119497 V
   0.0419668774847919    0.8626134119853730    0.3977391740119497 V
   0.2086335441514586    0.3626134119853730    0.3977391740119497 V
   0.6231756106354546    0.2268672597050264    0.4212684372299474 V
   0.7898422773021212    0.7268672597050263    0.4212684372299474 V
   0.9565089439687878    0.2268672597050264    0.4212684372299474 V
   0.1231756106354546    0.7268672597050263    0.4212684372299474 V
   0.2898422773021211    0.2268672597050264    0.4212684372299474 V
   0.4565089439687878    0.7268672597050263    0.4212684372299474 V
   0.5471157670223763    0.0929933002621081    0.4438683681572829 V
   0.7137824336890430    0.5929933002621081    0.4438683681572829 V
   0.8804491003557096    0.0929933002621081    0.4438683681572829 V
   0.0471157670223763    0.5929933002621081    0.4438683681572829 V
   0.2137824336890428    0.0929933002621081    0.4438683681572829 V
   0.3804491003557096    0.5929933002621081    0.4438683681572829 V
   0.4583238356471004    0.9988631785467335    0.3753553098696804 V
   0.6249905023137671    0.4988631785467335    0.3753553098696804 V
   0.7916571689804337    0.9988631785467335    0.3753553098696804 V
   0.9583238356471004    0.4988631785467335    0.3753553098696804 V
   0.1249905023137669    0.9988631785467335    0.3753553098696804 V
   0.2916571689804336    0.4988631785467335    0.3753553098696804 V
   0.2081627963318666    0.8172987757243310    0.4900884345059511 V
   0.3748294629985333    0.3172987757243310    0.4900884345059511 V
   0.5414961296651999    0.8172987757243310    0.4900884345059511 V
   0.7081627963318666    0.3172987757243310    0.4900884345059511 V
   0.8748294629985331    0.8172987757243310    0.4900884345059511 V
   0.0414961296651998    0.3172987757243310    0.4900884345059511 V
   0.4579427153125007    0.1786923231593038    0.5141007768993746 V
   0.6246093819791674    0.6786923231593036    0.5141007768993746 V
   0.7912760486458340    0.1786923231593038    0.5141007768993746 V
   0.9579427153125007    0.6786923231593036    0.5141007768993746 V
   0.1246093819791673    0.1786923231593038    0.5141007768993746 V
   0.2912760486458340    0.6786923231593036    0.5141007768993746 V
   0.2933598133795142    0.9580363767774067    0.4663458730333529 V
   0.4600264800461809    0.4580363767774067    0.4663458730333529 V
   0.6266931467128474    0.9580363767774067    0.4663458730333529 V
   0.7933598133795141    0.4580363767774067    0.4663458730333529 V
   0.9600264800461807    0.9580363767774067    0.4663458730333529 V
   0.1266931467128474    0.4580363767774067    0.4663458730333529 V
   0.0581391711390258    0.0631557901858500    0.0754099511206649 O
   0.2248058378056924    0.5631557901858500    0.0754099511206649 O
   0.3914725044723590    0.0631557901858500    0.0754099511206649 O
   0.5581391711390257    0.5631557901858500    0.0754099511206649 O
   0.7248058378056923    0.0631557901858500    0.0754099511206649 O
   0.8914725044723590    0.5631557901858500    0.0754099511206649 O
   0.2720845298679380    0.3857352917793397    0.0180571854788109 O
   0.4387511965346046    0.8857352917793396    0.0180571854788109 O
   0.6054178632012712    0.3857352917793397    0.0180571854788109 O
   0.7720845298679380    0.8857352917793396    0.0180571854788109 O
   0.9387511965346045    0.3857352917793397    0.0180571854788109 O
   0.1054178632012712    0.8857352917793396    0.0180571854788109 O
   0.1942812268499740    0.3277301947482916    0.0577005530654663 O
   0.3609478935166407    0.8277301947482916    0.0577005530654663 O
   0.5276145601833073    0.3277301947482916    0.0577005530654663 O
   0.6942812268499740    0.8277301947482916    0.0577005530654663 O
   0.8609478935166405    0.3277301947482916    0.0577005530654663 O
   0.0276145601833073    0.8277301947482916    0.0577005530654663 O
   0.1385299914388186    0.2319788361121801    0.0782142247712569 O
   0.3051966581054852    0.7319788361121801    0.0782142247712569 O
   0.4718633247721518    0.2319788361121801    0.0782142247712569 O
   0.6385299914388187    0.7319788361121801    0.0782142247712569 O
   0.8051966581054852    0.2319788361121801    0.0782142247712569 O
   0.9718633247721519    0.7319788361121801    0.0782142247712569 O
   0.2284729906521517    0.4442152403602186    0.0724664294027785 O
   0.3951396573188183    0.9442152403602186    0.0724664294027785 O
   0.5618063239854850    0.4442152403602186    0.0724664294027785 O
   0.7284729906521518    0.9442152403602186    0.0724664294027785 O
   0.8951396573188183    0.4442152403602186    0.0724664294027785 O
   0.0618063239854849    0.9442152403602186    0.0724664294027785 O
   0.1064558431860603    0.0206133077585333    0.0146357822123636 O
   0.2731225098527270    0.5206133077585332    0.0146357822123636 O
   0.4397891765193936    0.0206133077585333    0.0146357822123636 O
   0.6064558431860604    0.5206133077585332    0.0146357822123636 O
   0.7731225098527269    0.0206133077585333    0.0146357822123636 O
   0.9397891765193935    0.5206133077585332    0.0146357822123636 O
   0.0700259276881678    0.3323818046672817    0.0338662523500370 O
   0.2366925943548345    0.8323818046672817    0.0338662523500370 O
   0.4033592610215012    0.3323818046672817    0.0338662523500370 O
   0.5700259276881678    0.8323818046672817    0.0338662523500370 O
   0.7366925943548344    0.3323818046672817    0.0338662523500370 O
   0.9033592610215012    0.8323818046672817    0.0338662523500370 O
   0.2668101360013831    0.1209597258077738    0.0567222726384966 O
   0.4334768026680498    0.6209597258077738    0.0567222726384966 O
   0.6001434693347164    0.1209597258077738    0.0567222726384966 O
   0.7668101360013830    0.6209597258077738    0.0567222726384966 O
   0.9334768026680497    0.1209597258077738    0.0567222726384966 O
   0.1001434693347163    0.6209597258077738    0.0567222726384966 O
   0.9795498033989325    0.3578494015053241    0.0869121918355776 O
   0.1462164700655991    0.8578494015053241    0.0869121918355776 O
   0.3128831367322658    0.3578494015053241    0.0869121918355776 O
   0.4795498033989324    0.8578494015053241    0.0869121918355776 O
   0.6462164700655990    0.3578494015053241    0.0869121918355776 O
   0.8128831367322656    0.8578494015053241    0.0869121918355776 O
   0.3620147310686475    0.4497454198696584    0.0486744469154456 O
   0.5286813977353142    0.9497454198696584    0.0486744469154456 O
   0.6953480644019808    0.4497454198696584    0.0486744469154456 O
   0.8620147310686476    0.9497454198696584    0.0486744469154456 O
   0.0286813977353142    0.4497454198696584    0.0486744469154456 O
   0.1953480644019807    0.9497454198696584    0.0486744469154456 O
   0.9742355333764969    0.0098528702811238    0.0278662974905762 O
   0.1409022000431636    0.5098528702811238    0.0278662974905762 O
   0.3075688667098301    0.0098528702811238    0.0278662974905762 O
   0.4742355333764968    0.5098528702811238    0.0278662974905762 O
   0.6409022000431635    0.0098528702811238    0.0278662974905762 O
   0.8075688667098301    0.5098528702811238    0.0278662974905762 O
   0.2667287428839843    0.2390614374579980    0.0564518317439024 O
   0.4333954095506509    0.7390614374579979    0.0564518317439024 O
   0.6000620762173176    0.2390614374579980    0.0564518317439024 O
   0.7667287428839843    0.7390614374579979    0.0564518317439024 O
   0.9333954095506508    0.2390614374579980    0.0564518317439024 O
   0.1000620762173174    0.7390614374579979    0.0564518317439024 O
   0.8925304715570687    0.0182269955218299    0.1674378935979532 O
   0.0591971382237354    0.5182269955218298    0.1674378935979532 O
   0.2258638048904020    0.0182269955218299    0.1674378935979532 O
   0.3925304715570687    0.5182269955218298    0.1674378935979532 O
   0.5591971382237353    0.0182269955218299    0.1674378935979532 O
   0.7258638048904020    0.5182269955218298    0.1674378935979532 O
   0.1049133454736803    0.3472990619652591    0.1044261708340644 O
   0.2715800121403469    0.8472990619652591    0.1044261708340644 O
   0.4382466788070136    0.3472990619652591    0.1044261708340644 O
   0.6049133454736803    0.8472990619652591    0.1044261708340644 O
   0.7715800121403469    0.3472990619652591    0.1044261708340644 O
   0.9382466788070136    0.8472990619652591    0.1044261708340644 O
   0.0257869962696663    0.2840962855535871    0.1443885531698101 O
   0.1924536629363330    0.7840962855535872    0.1443885531698101 O
   0.3591203296029996    0.2840962855535871    0.1443885531698101 O
   0.5257869962696662    0.7840962855535872    0.1443885531698101 O
   0.6924536629363328    0.2840962855535871    0.1443885531698101 O
   0.8591203296029993    0.7840962855535872    0.1443885531698101 O
   0.9706392925141164    0.0803835543092869    0.1285142177108199 O
   0.1373059591807831    0.5803835543092869    0.1285142177108199 O
   0.3039726258474497    0.0803835543092869    0.1285142177108199 O
   0.4706392925141163    0.5803835543092869    0.1285142177108199 O
   0.6373059591807829    0.0803835543092869    0.1285142177108199 O
   0.8039726258474496    0.5803835543092869    0.1285142177108199 O
   0.0177522843573738    0.1731411587682983    0.0989621181140120 O
   0.1844189510240405    0.6731411587682984    0.0989621181140120 O
   0.3510856176907071    0.1731411587682983    0.0989621181140120 O
   0.5177522843573739    0.6731411587682984    0.0989621181140120 O
   0.6844189510240404    0.1731411587682983    0.0989621181140120 O
   0.8510856176907071    0.6731411587682984    0.0989621181140120 O
   0.9761228990292999    0.1891019529890219    0.1722244647183538 O
   0.1427895656959666    0.6891019529890218    0.1722244647183538 O
   0.3094562323626333    0.1891019529890219    0.1722244647183538 O
   0.4761228990292999    0.6891019529890218    0.1722244647183538 O
   0.6427895656959666    0.1891019529890219    0.1722244647183538 O
   0.8094562323626332    0.6891019529890218    0.1722244647183538 O
   0.0600384056942767    0.3955164048096503    0.1649490547006001 O
   0.2267050723609434    0.8955164048096501    0.1649490547006001 O
   0.3933717390276100    0.3955164048096503    0.1649490547006001 O
   0.5600384056942767    0.8955164048096501    0.1649490547006001 O
   0.7267050723609433    0.3955164048096503    0.1649490547006001 O
   0.8933717390276099    0.8955164048096501    0.1649490547006001 O
   0.9397333917964900    0.9686591649280243    0.1071270602669695 O
   0.1064000584631566    0.4686591649280243    0.1071270602669695 O
   0.2730667251298232    0.9686591649280243    0.1071270602669695 O
   0.4397333917964899    0.4686591649280243    0.1071270602669695 O
   0.6064000584631566    0.9686591649280243    0.1071270602669695 O
   0.7730667251298231    0.4686591649280243    0.1071270602669695 O
   0.8971470222093404    0.2842339715490231    0.1226112323442139 O
   0.0638136888760071    0.7842339715490231    0.1226112323442139 O
   0.2304803555426737    0.2842339715490231    0.1226112323442139 O
   0.3971470222093404    0.7842339715490231    0.1226112323442139 O
   0.5638136888760070    0.2842339715490231    0.1226112323442139 O
   0.7304803555426737    0.7842339715490231    0.1226112323442139 O
   0.1065011654471226    0.0759755926447718    0.1482860710119544 O
   0.2731678321137893    0.5759755926447717    0.1482860710119544 O
   0.4398344987804559    0.0759755926447718    0.1482860710119544 O
   0.6065011654471227    0.5759755926447717    0.1482860710119544 O
   0.7731678321137891    0.0759755926447718    0.1482860710119544 O
   0.9398344987804560    0.5759755926447717    0.1482860710119544 O
   0.8111374734883892    0.3115287928202532    0.1753161779709244 O
   0.9778041401550559    0.8115287928202533    0.1753161779709244 O
   0.1444708068217225    0.3115287928202532    0.1753161779709244 O
   0.3111374734883892    0.8115287928202533    0.1753161779709244 O
   0.4778041401550558    0.3115287928202532    0.1753161779709244 O
   0.6444708068217223    0.8115287928202533    0.1753161779709244 O
   0.1898985857420743    0.4041918881653007    0.1431998713420972 O
   0.3565652524087409    0.9041918881653006    0.1431998713420972 O
   0.5232319190754076    0.4041918881653007    0.1431998713420972 O
   0.6898985857420742    0.9041918881653006    0.1431998713420972 O
   0.8565652524087408    0.4041918881653007    0.1431998713420972 O
   0.0232319190754076    0.9041918881653006    0.1431998713420972 O
   0.8124425437786926    0.9597111835892178    0.1264308817320086 O
   0.9791092104453594    0.4597111835892178    0.1264308817320086 O
   0.1457758771120260    0.9597111835892178    0.1264308817320086 O
   0.3124425437786927    0.4597111835892178    0.1264308817320086 O
   0.4791092104453592    0.9597111835892178    0.1264308817320086 O
   0.6457758771120259    0.4597111835892178    0.1264308817320086 O
   0.8893678191283034    0.1666034993560377    0.1196733755202723 O
   0.0560344857949701    0.6666034993560377    0.1196733755202723 O
   0.2227011524616368    0.1666034993560377    0.1196733755202723 O
   0.3893678191283035    0.6666034993560377    0.1196733755202723 O
   0.5560344857949701    0.1666034993560377    0.1196733755202723 O
   0.7227011524616368    0.6666034993560377    0.1196733755202723 O
   0.1058363455935433    0.1962995905158899    0.1507686016298413 O
   0.2725030122602099    0.6962995905158900    0.1507686016298413 O
   0.4391696789268765    0.1962995905158899    0.1507686016298413 O
   0.6058363455935434    0.6962995905158900    0.1507686016298413 O
   0.7725030122602099    0.1962995905158899    0.1507686016298413 O
   0.9391696789268765    0.6962995905158900    0.1507686016298413 O
   0.7269599125395187    0.9720319975771297    0.2587729489927397 O
   0.8936265792061855    0.4720319975771296    0.2587729489927397 O
   0.0602932458728521    0.9720319975771297    0.2587729489927397 O
   0.2269599125395187    0.4720319975771296    0.2587729489927397 O
   0.3936265792061854    0.9720319975771297    0.2587729489927397 O
   0.5602932458728521    0.4720319975771296    0.2587729489927397 O
   0.9393330279889565    0.2990600061854167    0.1966992150160896 O
   0.1059996946556231    0.7990600061854167    0.1966992150160896 O
   0.2726663613222898    0.2990600061854167    0.1966992150160896 O
   0.4393330279889565    0.7990600061854167    0.1966992150160896 O
   0.6059996946556231    0.2990600061854167    0.1966992150160896 O
   0.7726663613222896    0.7990600061854167    0.1966992150160896 O
   0.8574453048611228    0.2354951801741771    0.2347401799328022 O
   0.0241119715277895    0.7354951801741770    0.2347401799328022 O
   0.1907786381944561    0.2354951801741771    0.2347401799328022 O
   0.3574453048611228    0.7354951801741770    0.2347401799328022 O
   0.5241119715277894    0.2354951801741771    0.2347401799328022 O
   0.6907786381944562    0.7354951801741770    0.2347401799328022 O
   0.8083304592541998    0.0368661649488966    0.2209645016908437 O
   0.9749971259208665    0.5368661649488966    0.2209645016908437 O
   0.1416637925875331    0.0368661649488966    0.2209645016908437 O
   0.3083304592541998    0.5368661649488966    0.2209645016908437 O
   0.4749971259208664    0.0368661649488966    0.2209645016908437 O
   0.6416637925875330    0.5368661649488966    0.2209645016908437 O
   0.8548449738577688    0.1305337232864228    0.1910205046003617 O
   0.0215116405244355    0.6305337232864228    0.1910205046003617 O
   0.1881783071911022    0.1305337232864228    0.1910205046003617 O
   0.3548449738577688    0.6305337232864228    0.1910205046003617 O
   0.5215116405244353    0.1305337232864228    0.1910205046003617 O
   0.6881783071911021    0.6305337232864228    0.1910205046003617 O
   0.8095028196641267    0.1413333758835944    0.2647631038383312 O
   0.9761694863307935    0.6413333758835944    0.2647631038383312 O
   0.1428361529974601    0.1413333758835944    0.2647631038383312 O
   0.3095028196641268    0.6413333758835944    0.2647631038383312 O
   0.4761694863307934    0.1413333758835944    0.2647631038383312 O
   0.6428361529974599    0.6413333758835944    0.2647631038383312 O
   0.8927790303215727    0.3488695215812846    0.2563598165598229 O
   0.0594456969882394    0.8488695215812846    0.2563598165598229 O
   0.2261123636549060    0.3488695215812846    0.2563598165598229 O
   0.3927790303215727    0.8488695215812846    0.2563598165598229 O
   0.5594456969882393    0.3488695215812846    0.2563598165598229 O
   0.7261123636549059    0.8488695215812846    0.2563598165598229 O
   0.7728681974333913    0.9248504852475029    0.1981844921127248 O
   0.9395348641000579    0.4248504852475029    0.1981844921127248 O
   0.1062015307667245    0.9248504852475029    0.1981844921127248 O
   0.2728681974333913    0.4248504852475029    0.1981844921127248 O
   0.4395348641000578    0.9248504852475029    0.1981844921127248 O
   0.6062015307667245    0.4248504852475029    0.1981844921127248 O
   0.7292072612970660    0.2438421846512277    0.2127186572273861 O
   0.8958739279637327    0.7438421846512276    0.2127186572273861 O
   0.0625405946303993    0.2438421846512277    0.2127186572273861 O
   0.2292072612970660    0.7438421846512276    0.2127186572273861 O
   0.3958739279637326    0.2438421846512277    0.2127186572273861 O
   0.5625405946303992    0.7438421846512276    0.2127186572273861 O
   0.9384389127298891    0.0287249124568580    0.2408078549719066 O
   0.1051055793965558    0.5287249124568580    0.2408078549719066 O
   0.2717722460632224    0.0287249124568580    0.2408078549719066 O
   0.4384389127298891    0.5287249124568580    0.2408078549719066 O
   0.6051055793965557    0.0287249124568580    0.2408078549719066 O
   0.7717722460632224    0.5287249124568580    0.2408078549719066 O
   0.6440048302953161    0.2648900524134177    0.2669372024584601 O
   0.8106714969619828    0.7648900524134176    0.2669372024584601 O
   0.9773381636286494    0.2648900524134177    0.2669372024584601 O
   0.1440048302953161    0.7648900524134176    0.2669372024584601 O
   0.3106714969619827    0.2648900524134177    0.2669372024584601 O
   0.4773381636286493    0.7648900524134176    0.2669372024584601 O
   0.0229756186572164    0.3587489790091364    0.2355103596133876 O
   0.1896422853238831    0.8587489790091364    0.2355103596133876 O
   0.3563089519905497    0.3587489790091364    0.2355103596133876 O
   0.5229756186572164    0.8587489790091364    0.2355103596133876 O
   0.6896422853238829    0.3587489790091364    0.2355103596133876 O
   0.8563089519905496    0.8587489790091364    0.2355103596133876 O
   0.6437957688404099    0.9148005728553346    0.2180051706609957 O
   0.8104624355070764    0.4148005728553346    0.2180051706609957 O
   0.9771291021737432    0.9148005728553346    0.2180051706609957 O
   0.1437957688404098    0.4148005728553346    0.2180051706609957 O
   0.3104624355070764    0.9148005728553346    0.2180051706609957 O
   0.4771291021737432    0.4148005728553346    0.2180051706609957 O
   0.7265104605071739    0.1221654806570839    0.2097101824050565 O
   0.8931771271738407    0.6221654806570839    0.2097101824050565 O
   0.0598437938405073    0.1221654806570839    0.2097101824050565 O
   0.2265104605071740    0.6221654806570839    0.2097101824050565 O
   0.3931771271738406    0.1221654806570839    0.2097101824050565 O
   0.5598437938405072    0.6221654806570839    0.2097101824050565 O
   0.9397906950207784    0.1505941411045118    0.2437977745103967 O
   0.1064573616874450    0.6505941411045117    0.2437977745103967 O
   0.2731240283541117    0.1505941411045118    0.2437977745103967 O
   0.4397906950207784    0.6505941411045117    0.2437977745103967 O
   0.6064573616874449    0.1505941411045118    0.2437977745103967 O
   0.7731240283541115    0.6505941411045117    0.2437977745103967 O
   0.5606669468443726    0.9282126983145825    0.3487553469839133 O
   0.7273336135110391    0.4282126983145825    0.3487553469839133 O
   0.8940002801777058    0.9282126983145825    0.3487553469839133 O
   0.0606669468443725    0.4282126983145825    0.3487553469839133 O
   0.2273336135110391    0.9282126983145825    0.3487553469839133 O
   0.3940002801777057    0.4282126983145825    0.3487553469839133 O
   0.7730400641271495    0.2552407074228711    0.2866816120072599 O
   0.9397067307938163    0.7552407074228712    0.2866816120072599 O
   0.1063733974604829    0.2552407074228711    0.2866816120072599 O
   0.2730400641271496    0.7552407074228712    0.2866816120072599 O
   0.4397067307938162    0.2552407074228711    0.2866816120072599 O
   0.6063733974604828    0.7552407074228712    0.2866816120072599 O
   0.6916695722458062    0.1904065845511063    0.3244900293091532 O
   0.8583362389124729    0.6904065845511062    0.3244900293091532 O
   0.0250029055791395    0.1904065845511063    0.3244900293091532 O
   0.1916695722458062    0.6904065845511062    0.3244900293091532 O
   0.3583362389124728    0.1904065845511063    0.3244900293091532 O
   0.5250029055791394    0.6904065845511062    0.3244900293091532 O
   0.6425546973055468    0.9917775613258250    0.3107143670671964 O
   0.8092213639722134    0.4917775613258250    0.3107143670671964 O
   0.9758880306388801    0.9917775613258250    0.3107143670671964 O
   0.1425546973055468    0.4917775613258250    0.3107143670671964 O
   0.3092213639722134    0.9917775613258250    0.3107143670671964 O
   0.4758880306388801    0.4917775613258250    0.3107143670671964 O
   0.6904972000025379    0.0859393431164040    0.2806914281616699 O
   0.8571638666692045    0.5859393431164041    0.2806914281616699 O
   0.0238305333358712    0.0859393431164040    0.2806914281616699 O
   0.1904972000025379    0.5859393431164041    0.2806914281616699 O
   0.3571638666692045    0.0859393431164040    0.2806914281616699 O
   0.5238305333358712    0.5859393431164041    0.2806914281616699 O
   0.6451550183088999    0.0967389882135766    0.3544340423996368 O
   0.8118216849755665    0.5967389882135766    0.3544340423996368 O
   0.9784883516422331    0.0967389882135766    0.3544340423996368 O
   0.1451550183088998    0.5967389882135766    0.3544340423996368 O
   0.3118216849755664    0.0967389882135766    0.3544340423996368 O
   0.4784883516422332    0.5967389882135766    0.3544340423996368 O
   0.7271317997332851    0.3024222362525006    0.3472700538872702 O
   0.8937984663999518    0.8024222362525004    0.3472700538872702 O
   0.0604651330666184    0.3024222362525006    0.3472700538872702 O
   0.2271317997332851    0.8024222362525004    0.3472700538872702 O
   0.3937984663999516    0.3024222362525006    0.3472700538872702 O
   0.5604651330666184    0.8024222362525004    0.3472700538872702 O
   0.6072209925117725    0.8784032069187198    0.2890947154401708 O
   0.7738876591784392    0.3784032069187196    0.2890947154401708 O
   0.9405543258451058    0.8784032069187198    0.2890947154401708 O
   0.1072209925117725    0.3784032069187196    0.2890947154401708 O
   0.2738876591784391    0.8784032069187198    0.2890947154401708 O
   0.4405543258451057    0.3784032069187196    0.2890947154401708 O
   0.5615610602700980    0.1985478215431381    0.3046467060281002 O
   0.7282277269367647    0.6985478215431382    0.3046467060281002 O
   0.8948943936034314    0.1985478215431381    0.3046467060281002 O
   0.0615610602700980    0.6985478215431382    0.3046467060281002 O
   0.2282277269367646    0.1985478215431381    0.3046467060281002 O
   0.3948943936034313    0.6985478215431382    0.3046467060281002 O
   0.7707927373696025    0.9834305563487723    0.3327358897726126 O
   0.9374594040362692    0.4834305563487723    0.3327358897726126 O
   0.1041260707029358    0.9834305563487723    0.3327358897726126 O
   0.2707927373696025    0.4834305563487723    0.3327358897726126 O
   0.4374594040362691    0.9834305563487723    0.3327358897726126 O
   0.6041260707029356    0.4834305563487723    0.3327358897726126 O
   0.8095106312211585    0.2171904384340339    0.3574705696728767 O
   0.9761772978878251    0.7171904384340339    0.3574705696728767 O
   0.1428439645544918    0.2171904384340339    0.3574705696728767 O
   0.3095106312211585    0.7171904384340339    0.3574705696728767 O
   0.4761772978878251    0.2171904384340339    0.3574705696728767 O
   0.6428439645544918    0.7171904384340339    0.3574705696728767 O
   0.8562042524929214    0.3124721591446647    0.3274493613390053 O
   0.0228709191595881    0.8124721591446648    0.3274493613390053 O
   0.1895375858262547    0.3124721591446647    0.3274493613390053 O
   0.3562042524929214    0.8124721591446648    0.3274493613390053 O
   0.5228709191595879    0.3124721591446647    0.3274493613390053 O
   0.6895375858262546    0.8124721591446648    0.3274493613390053 O
   0.4770243751761196    0.8685237454908640    0.3099441873866109 O
   0.6436910418427864    0.3685237454908640    0.3099441873866109 O
   0.8103577085094529    0.8685237454908640    0.3099441873866109 O
   0.9770243751761196    0.3685237454908640    0.3099441873866109 O
   0.1436910418427862    0.8685237454908640    0.3099441873866109 O
   0.3103577085094529    0.3685237454908640    0.3099441873866109 O
   0.5602093319792193    0.0766785928954879    0.3016567574896041 O
   0.7268759986458859    0.5766785928954880    0.3016567574896041 O
   0.8935426653125526    0.0766785928954879    0.3016567574896041 O
   0.0602093319792193    0.5766785928954880    0.3016567574896041 O
   0.2268759986458858    0.0766785928954879    0.3016567574896041 O
   0.3935426653125526    0.5766785928954880    0.3016567574896041 O
   0.7734895389928280    0.1051072458429169    0.3357443645949419 O
   0.9401562056594948    0.6051072458429169    0.3357443645949419 O
   0.1068228723261613    0.1051072458429169    0.3357443645949419 O
   0.2734895389928280    0.6051072458429169    0.3357443645949419 O
   0.4401562056594945    0.1051072458429169    0.3357443645949419 O
   0.6068228723261614    0.6051072458429169    0.3357443645949419 O
   0.3950866293596478    0.8799736425347400    0.4410283911659391 O
   0.5617532960263144    0.3799736425347400    0.4410283911659391 O
   0.7284199626929810    0.8799736425347400    0.4410283911659391 O
   0.8950866293596477    0.3799736425347400    0.4410283911659391 O
   0.0617532960263143    0.8799736425347400    0.4410283911659391 O
   0.2284199626929810    0.3799736425347400    0.4410283911659391 O
   0.6074695032762724    0.2090457089781723    0.3780166684020432 O
   0.7741361699429390    0.7090457089781723    0.3780166684020432 O
   0.9408028366096056    0.2090457089781723    0.3780166684020432 O
   0.1074695032762723    0.7090457089781723    0.3780166684020432 O
   0.2741361699429389    0.2090457089781723    0.3780166684020432 O
   0.4408028366096056    0.7090457089781723    0.3780166684020432 O
   0.5293607371525491    0.1468891946907138    0.4169403142891809 O
   0.6960274038192157    0.6468891946907137    0.4169403142891809 O
   0.8626940704858823    0.1468891946907138    0.4169403142891809 O
   0.0293607371525490    0.6468891946907137    0.4169403142891809 O
   0.1960274038192156    0.1468891946907138    0.4169403142891809 O
   0.3626940704858823    0.6468891946907137    0.4169403142891809 O
   0.4742130058970031    0.9431764559464147    0.4010659938301884 O
   0.6408796725636698    0.4431764559464147    0.4010659938301884 O
   0.8075463392303365    0.9431764559464147    0.4010659938301884 O
   0.9742130058970032    0.4431764559464147    0.4010659938301884 O
   0.1408796725636698    0.9431764559464147    0.4010659938301884 O
   0.3075463392303364    0.4431764559464147    0.4010659938301884 O
   0.5238771224707048    0.0381707665109781    0.3732300662816433 O
   0.6905437891373715    0.5381707665109781    0.3732300662816433 O
   0.8572104558040381    0.0381707665109781    0.3732300662816433 O
   0.0238771224707048    0.5381707665109781    0.3732300662816433 O
   0.1905437891373714    0.0381707665109781    0.3732300662816433 O
   0.3572104558040380    0.5381707665109781    0.3732300662816433 O
   0.4822477078092954    0.0541315527317013    0.4464924288859864 O
   0.6489143744759622    0.5541315527317013    0.4464924288859864 O
   0.8155810411426287    0.0541315527317013    0.4464924288859864 O
   0.9822477078092955    0.5541315527317013    0.4464924288859864 O
   0.1489143744759621    0.0541315527317013    0.4464924288859864 O
   0.3155810411426287    0.5541315527317013    0.4464924288859864 O
   0.5602666035368469    0.2586135560719780    0.4383274867330289 O
   0.7269332702035134    0.7586135560719780    0.4383274867330289 O
   0.8935999368701801    0.2586135560719780    0.4383274867330289 O
   0.0602666035368468    0.7586135560719780    0.4383274867330289 O
   0.2269332702035134    0.2586135560719780    0.4383274867330289 O
   0.3935999368701800    0.7586135560719780    0.4383274867330289 O
   0.4399615896390593    0.8317563161903516    0.3805054922993987 O
   0.6066282563057259    0.3317563161903516    0.3805054922993987 O
   0.7732949229723926    0.8317563161903516    0.3805054922993987 O
   0.9399615896390593    0.3317563161903516    0.3805054922993987 O
   0.1066282563057259    0.8317563161903516    0.3805054922993987 O
   0.2732949229723926    0.3317563161903516    0.3805054922993987 O
   0.3934988607195425    0.1512971558552275    0.3971684609880462 O
   0.5601655273862092    0.6512971558552275    0.3971684609880462 O
   0.7268321940528759    0.1512971558552275    0.3971684609880462 O
   0.8934988607195425    0.6512971558552275    0.3971684609880462 O
   0.0601655273862091    0.1512971558552275    0.3971684609880462 O
   0.2268321940528758    0.6512971558552275    0.3971684609880462 O
   0.6028529617906606    0.9430387654509765    0.4228433226557853 O
   0.7695196284573274    0.4430387654509765    0.4228433226557853 O
   0.9361862951239939    0.9430387654509765    0.4228433226557853 O
   0.1028529617906606    0.4430387654509765    0.4228433226557853 O
   0.2695196284573272    0.9430387654509765    0.4228433226557853 O
   0.4361862951239939    0.4430387654509765    0.4228433226557853 O
   0.3088703390684973    0.1757394257290706    0.4529708186473426 O
   0.4755370057351639    0.6757394257290704    0.4529708186473426 O
   0.6422036724018305    0.1757394257290706    0.4529708186473426 O
   0.8088703390684973    0.6757394257290704    0.4529708186473426 O
   0.9755370057351638    0.1757394257290706    0.4529708186473426 O
   0.1422036724018305    0.6757394257290704    0.4529708186473426 O
   0.6875574793879790    0.2675615489107834    0.4190236492679886 O
   0.8542241460546456    0.7675615489107833    0.4190236492679886 O
   0.0208908127213122    0.2675615489107834    0.4190236492679886 O
   0.1875574793879789    0.7675615489107833    0.4190236492679886 O
   0.3542241460546455    0.2675615489107834    0.4190236492679886 O
   0.5208908127213121    0.7675615489107833    0.4190236492679886 O
   0.3101014099245880    0.8230808368346980    0.4022546746579051 O
   0.4767680765912546    0.3230808368346979    0.4022546746579051 O
   0.6434347432579214    0.8230808368346980    0.4022546746579051 O
   0.8101014099245880    0.3230808368346979    0.4022546746579051 O
   0.9767680765912546    0.8230808368346980    0.4022546746579051 O
   0.1434347432579213    0.3230808368346979    0.4022546746579051 O
   0.3941636814064544    0.0309731434841097    0.3946859303701595 O
   0.5608303480731210    0.5309731434841097    0.3946859303701595 O
   0.7274970147397877    0.0309731434841097    0.3946859303701595 O
   0.8941636814064544    0.5309731434841097    0.3946859303701595 O
   0.0608303480731209    0.0309731434841097    0.3946859303701595 O
   0.2274970147397876    0.5309731434841097    0.3946859303701595 O
   0.6106321803716850    0.0606692271439594    0.4257811714797334 O
   0.7772988470383516    0.5606692271439595    0.4257811714797334 O
   0.9439655137050182    0.0606692271439594    0.4257811714797334 O
   0.1106321803716849    0.5606692271439595    0.4257811714797334 O
   0.2772988470383515    0.0606692271439594    0.4257811714797334 O
   0.4439655137050182    0.5606692271439595    0.4257811714797334 O
   0.2279154981320543    0.8415374272206586    0.5273973475211939 O
   0.3945821647987209    0.3415374272206586    0.5273973475211939 O
   0.5612488314653875    0.8415374272206586    0.5273973475211939 O
   0.7279154981320543    0.3415374272206586    0.5273973475211939 O
   0.8945821647987209    0.8415374272206586    0.5273973475211939 O
   0.0612488314653875    0.3415374272206586    0.5273973475211939 O
   0.4418608183609830    0.1641169183141528    0.4700446028793309 O
   0.6085274850276499    0.6641169183141528    0.4700446028793309 O
   0.7751941516943164    0.1641169183141528    0.4700446028793309 O
   0.9418608183609831    0.6641169183141528    0.4700446028793309 O
   0.1085274850276497    0.1641169183141528    0.4700446028793309 O
   0.2751941516943164    0.6641169183141528    0.4700446028793309 O
   0.3057187698166882    0.8995425452517083    0.4877539969345362 O
   0.4723854364833548    0.3995425452517083    0.4877539969345362 O
   0.6390521031500214    0.8995425452517083    0.4877539969345362 O
   0.8057187698166881    0.3995425452517083    0.4877539969345362 O
   0.9723854364833547    0.8995425452517083    0.4877539969345362 O
   0.1390521031500214    0.3995425452517083    0.4877539969345362 O
   0.3614700153945177    0.9952938793878197    0.4672403142287412 O
   0.5281366820611844    0.4952938793878196    0.4672403142287412 O
   0.6948033487278509    0.9952938793878197    0.4672403142287412 O
   0.8614700153945176    0.4952938793878196    0.4672403142287412 O
   0.0281366820611842    0.9952938793878197    0.4672403142287412 O
   0.1948033487278509    0.4952938793878196    0.4672403142287412 O
   0.3935441484806087    0.2066594122414687    0.5308187667876353 O
   0.5602108151472754    0.7066594122414687    0.5308187667876353 O
   0.7268774818139421    0.2066594122414687    0.5308187667876353 O
   0.8935441484806087    0.7066594122414687    0.5308187667876353 O
   0.0602108151472753    0.2066594122414687    0.5308187667876353 O
   0.2268774818139420    0.7066594122414687    0.5308187667876353 O
   0.2715270046811848    0.7830574806397836    0.4729881175972200 O
   0.4381936713478515    0.2830574806397836    0.4729881175972200 O
   0.6048603380145181    0.7830574806397836    0.4729881175972200 O
   0.7715270046811848    0.2830574806397836    0.4729881175972200 O
   0.9381936713478515    0.7830574806397836    0.4729881175972200 O
   0.1048603380145181    0.2830574806397836    0.4729881175972200 O
   0.2331898828319473    0.1063130206922247    0.4887322633615047 O
   0.3998565494986139    0.6063130206922247    0.4887322633615047 O
   0.5665232161652805    0.1063130206922247    0.4887322633615047 O
   0.7331898828319472    0.6063130206922247    0.4887322633615047 O
   0.8998565494986138    0.1063130206922247    0.4887322633615047 O
   0.0665232161652805    0.6063130206922247    0.4887322633615047 O
   0.4299741094784975    0.8948909468327174    0.5115882736499637 O
   0.5966407761451642    0.3948909468327173    0.5115882736499637 O
   0.7633074428118307    0.8948909468327174    0.5115882736499637 O
   0.9299741094784975    0.3948909468327173    0.5115882736499637 O
   0.0966407761451640    0.8948909468327174    0.5115882736499637 O
   0.2633074428118307    0.3948909468327173    0.5115882736499637 O
   0.4666633366242628    0.1172298331562268    0.5362480434645465 O
   0.6333300032909295    0.6172298331562268    0.5362480434645465 O
   0.7999966699575961    0.1172298331562268    0.5362480434645465 O
   0.9666633366242628    0.6172298331562268    0.5362480434645465 O
   0.1333300032909294    0.1172298331562268    0.5362480434645465 O
   0.2999966699575961    0.6172298331562268    0.5362480434645465 O
   0.5257644751234936    0.2174198582188736    0.5175882415094288 O
   0.6924311417901603    0.7174198582188736    0.5175882415094288 O
   0.8590978084568268    0.2174198582188736    0.5175882415094288 O
   0.0257644751234936    0.7174198582188736    0.5175882415094288 O
   0.1924311417901602    0.2174198582188736    0.5175882415094288 O
   0.3590978084568268    0.7174198582188736    0.5175882415094288 O
   0.1379852554313541    0.7775273026303420    0.4967801040845535 O
   0.3046519220980207    0.2775273026303420    0.4967801040845535 O
   0.4713185887646872    0.7775273026303420    0.4967801040845535 O
   0.6379852554313540    0.2775273026303420    0.4967801040845535 O
   0.8046519220980206    0.7775273026303420    0.4967801040845535 O
   0.9713185887646872    0.2775273026303420    0.4967801040845535 O
   0.2332712694493584    0.9882112925420050    0.4890027082560920 O
   0.3999379361160251    0.4882112925420050    0.4890027082560920 O
   0.5666046027826918    0.9882112925420050    0.4890027082560920 O
   0.7332712694493585    0.4882112925420050    0.4890027082560920 O
   0.8999379361160250    0.9882112925420050    0.4890027082560920 O
   0.0666046027826917    0.4882112925420050    0.4890027082560920 O
   0.0333366473757340    0.1100428738437706    0.0092065125354562 O
   0.2000033140424007    0.6100428738437706    0.0092065125354562 O
   0.3666699807090674    0.1100428738437706    0.0092065125354562 O
   0.5333366473757339    0.6100428738437706    0.0092065125354562 O
   0.7000033140424006    0.1100428738437706    0.0092065125354562 O
   0.8666699807090673    0.6100428738437706    0.0092065125354562 O
   0.1911296467648382    0.0515332817709283    0.0924837363526571 O
   0.3577963134315048    0.5515332817709283    0.0924837363526571 O
   0.5244629800981714    0.0515332817709283    0.0924837363526571 O
   0.6911296467648381    0.5515332817709283    0.0924837363526571 O
   0.8577963134315049    0.0515332817709283    0.0924837363526571 O
   0.0244629800981715    0.5515332817709283    0.0924837363526571 O
   0.6904893692788454    0.0100822730659656    0.1879839773271220 O
   0.8571560359455122    0.5100822730659655    0.1879839773271220 O
   0.0238227026121787    0.0100822730659656    0.1879839773271220 O
   0.1904893692788454    0.5100822730659655    0.1879839773271220 O
   0.3571560359455120    0.0100822730659656    0.1879839773271220 O
   0.5238227026121788    0.5100822730659655    0.1879839773271220 O
   0.8559951445380193    0.9623826520865812    0.2785173585415396 O
   0.0226618112046860    0.4623826520865812    0.2785173585415396 O
   0.1893284778713526    0.9623826520865812    0.2785173585415396 O
   0.3559951445380193    0.4623826520865812    0.2785173585415396 O
   0.5226618112046860    0.9623826520865812    0.2785173585415396 O
   0.6893284778713527    0.4623826520865812    0.2785173585415396 O
   0.3555292211782773    0.9157439261797451    0.3701383540290765 O
   0.5221958878449441    0.4157439261797451    0.3701383540290765 O
   0.6888625545116107    0.9157439261797451    0.3701383540290765 O
   0.8555292211782775    0.4157439261797451    0.3701383540290765 O
   0.0221958878449440    0.9157439261797451    0.3701383540290765 O
   0.1888625545116107    0.4157439261797451    0.3701383540290765 O
   0.5204502246010674    0.8694233174946742    0.4585423401644233 O
   0.6871168912677339    0.3694233174946741    0.4585423401644233 O
   0.8537835579344006    0.8694233174946742    0.4585423401644233 O
   0.0204502246010673    0.3694233174946741    0.4585423401644233 O
   0.1871168912677339    0.8694233174946742    0.4585423401644233 O
   0.3537835579344005    0.3694233174946741    0.4585423401644233 O
