V72 Bi90 O288
1.0
  15.5016274451999987    0.0000000000000000    0.0000000000000000
   2.5836036982000006   19.2657235769999993    0.0000000000000000
   2.5836022610999998    0.5596120891000000   42.5723132075999970
Bi V O
90 72 288
direct
   0.3621281495123176    0.2434921452390728    0.9768547180974775 Bi
   0.4732392606234288    0.5768254785724061    0.9768547180974775 Bi
   0.5843503717345400    0.9101588119057394    0.9768547180974775 Bi
   0.6954614828456510    0.2434921452390728    0.9768547180974775 Bi
   0.8065725939567622    0.5768254785724061    0.9768547180974775 Bi
   0.9176837050678731    0.9101588119057394    0.9768547180974775 Bi
   0.0287948161789844    0.2434921452390728    0.9768547180974775 Bi
   0.1399059272900955    0.5768254785724061    0.9768547180974775 Bi
   0.2510170384012065    0.9101588119057394    0.9768547180974775 Bi
   0.3872267011725880    0.1865905187535489    0.9064362933096475 Bi
   0.4983378122836992    0.5199238520868822    0.9064362933096475 Bi
   0.6094489233948103    0.8532571854202156    0.9064362933096475 Bi
   0.7205600345059213    0.1865905187535489    0.9064362933096475 Bi
   0.8316711456170326    0.5199238520868822    0.9064362933096475 Bi
   0.9427822567281438    0.8532571854202156    0.9064362933096475 Bi
   0.0538933678392548    0.1865905187535489    0.9064362933096475 Bi
   0.1650044789503660    0.5199238520868822    0.9064362933096475 Bi
   0.2761155900614771    0.8532571854202156    0.9064362933096475 Bi
   0.2664405346011768    0.0368776861018147    0.8718332088565754 Bi
   0.3775516457122879    0.3702110194351481    0.8718332088565754 Bi
   0.4886627568233990    0.7035443527684814    0.8718332088565754 Bi
   0.5997738679345102    0.0368776861018147    0.8718332088565754 Bi
   0.7108849790456213    0.3702110194351481    0.8718332088565754 Bi
   0.8219960901567323    0.7035443527684814    0.8718332088565754 Bi
   0.9331072012678434    0.0368776861018147    0.8718332088565754 Bi
   0.0442183123789543    0.3702110194351481    0.8718332088565754 Bi
   0.1553294234900655    0.7035443527684814    0.8718332088565754 Bi
   0.4028517685065478    0.2898680426893727    0.7916056643056080 Bi
   0.5139628796176590    0.6232013760227060    0.7916056643056080 Bi
   0.6250739907287701    0.9565347093560393    0.7916056643056080 Bi
   0.7361851018398812    0.2898680426893727    0.7916056643056080 Bi
   0.8472962129509924    0.6232013760227060    0.7916056643056080 Bi
   0.9584073240621038    0.9565347093560393    0.7916056643056080 Bi
   0.0695184351732148    0.2898680426893727    0.7916056643056080 Bi
   0.1806295462843259    0.6232013760227060    0.7916056643056080 Bi
   0.2917406573954371    0.9565347093560393    0.7916056643056080 Bi
   0.2651904325237581    0.1505257253602482    0.7637086644717411 Bi
   0.3763015436348691    0.4838590586935815    0.7637086644717411 Bi
   0.4874126547459803    0.8171923920269147    0.7637086644717411 Bi
   0.5985237658570914    0.1505257253602482    0.7637086644717411 Bi
   0.7096348769682025    0.4838590586935815    0.7637086644717411 Bi
   0.8207459880793140    0.8171923920269147    0.7637086644717411 Bi
   0.9318570991904250    0.1505257253602482    0.7637086644717411 Bi
   0.0429682103015361    0.4838590586935815    0.7637086644717411 Bi
   0.1540793214126472    0.8171923920269147    0.7637086644717411 Bi
   0.2903651146984623    0.0716964983064167    0.6807357535282621 Bi
   0.4014762258095734    0.4050298316397500    0.6807357535282621 Bi
   0.5125873369206846    0.7383631649730833    0.6807357535282621 Bi
   0.6236984480317956    0.0716964983064167    0.6807357535282621 Bi
   0.7348095591429067    0.4050298316397500    0.6807357535282621 Bi
   0.8459206702540181    0.7383631649730833    0.6807357535282621 Bi
   0.9570317813651291    0.0716964983064167    0.6807357535282621 Bi
   0.0681428924762404    0.4050298316397500    0.6807357535282621 Bi
   0.1792540035873513    0.7383631649730833    0.6807357535282621 Bi
   0.2638148916045646    0.2656875196439617    0.6528387536943954 Bi
   0.3749260027156758    0.5990208529772951    0.6528387536943954 Bi
   0.4860371138267869    0.9323541863106283    0.6528387536943954 Bi
   0.5971482249378981    0.2656875196439617    0.6528387536943954 Bi
   0.7082593360490091    0.5990208529772951    0.6528387536943954 Bi
   0.8193704471601203    0.9323541863106283    0.6528387536943954 Bi
   0.9304815582712314    0.2656875196439617    0.6528387536943954 Bi
   0.0415926693823425    0.5990208529772951    0.6528387536943954 Bi
   0.1527037804934535    0.9323541863106283    0.6528387536943954 Bi
   0.2891150142877132    0.1853445425648517    0.5726112691434257 Bi
   0.4002261253988244    0.5186778758981850    0.5726112691434257 Bi
   0.5113372365099355    0.8520112092315183    0.5726112691434257 Bi
   0.6224483476210466    0.1853445425648517    0.5726112691434257 Bi
   0.7335594587321577    0.5186778758981850    0.5726112691434257 Bi
   0.8446705698432687    0.8520112092315183    0.5726112691434257 Bi
   0.9557816809543798    0.1853445425648517    0.5726112691434257 Bi
   0.0668927920654909    0.5186778758981850    0.5726112691434257 Bi
   0.1780039031766021    0.8520112092315183    0.5726112691434257 Bi
   0.1683288557163002    0.0356317099131175    0.5380081246903559 Bi
   0.2794399668274113    0.3689650432464507    0.5380081246903559 Bi
   0.3905510779385224    0.7022983765797841    0.5380081246903559 Bi
   0.5016621890496337    0.0356317099131175    0.5380081246903559 Bi
   0.6127733001607447    0.3689650432464507    0.5380081246903559 Bi
   0.7238844112718559    0.7022983765797841    0.5380081246903559 Bi
   0.8349955223829670    0.0356317099131175    0.5380081246903559 Bi
   0.9461066334940781    0.3689650432464507    0.5380081246903559 Bi
   0.0572177446051891    0.7022983765797841    0.5380081246903559 Bi
   0.3045385105987949    0.3120634170942616    0.4675897589025202 Bi
   0.4156496217099062    0.6453967504275948    0.4675897589025202 Bi
   0.5267607328210172    0.9787300837609282    0.4675897589025202 Bi
   0.6378718439321284    0.3120634170942616    0.4675897589025202 Bi
   0.7489829550432394    0.6453967504275948    0.4675897589025202 Bi
   0.8600940661543505    0.9787300837609282    0.4675897589025202 Bi
   0.9712051772654614    0.3120634170942616    0.4675897589025202 Bi
   0.0823162883765727    0.6453967504275948    0.4675897589025202 Bi
   0.1934273994876838    0.9787300837609282    0.4675897589025202 Bi
   0.2099592616358742    0.3201290385132659    0.9330863731449452 V
   0.3210703727469854    0.6534623718465991    0.9330863731449452 V
   0.4321814838580965    0.9867957051799325    0.9330863731449452 V
   0.5432925949692076    0.3201290385132659    0.9330863731449452 V
   0.6544037060803187    0.6534623718465991    0.9330863731449452 V
   0.7655148171914299    0.9867957051799325    0.9330863731449452 V
   0.8766259283025410    0.3201290385132659    0.9330863731449452 V
   0.9877370394136520    0.6534623718465991    0.9330863731449452 V
   0.0988481505247631    0.9867957051799325    0.9330863731449452 V
   0.0975555648404659    0.0966339918874409    0.8190945114366912 V
   0.2086666759515770    0.4299673252207742    0.8190945114366912 V
   0.3197777870626882    0.7633006585541076    0.8190945114366912 V
   0.4308888981737994    0.0966339918874409    0.8190945114366912 V
   0.5420000092849104    0.4299673252207742    0.8190945114366912 V
   0.6531111203960216    0.7633006585541076    0.8190945114366912 V
   0.7642222315071328    0.0966339918874409    0.8190945114366912 V
   0.8753333426182438    0.4299673252207742    0.8190945114366912 V
   0.9864444537293547    0.7633006585541076    0.8190945114366912 V
   0.2343336542108336    0.2396050645141406    0.8496394744151263 V
   0.3454447653219446    0.5729383978474740    0.8496394744151263 V
   0.4565558764330557    0.9062717311808074    0.8496394744151263 V
   0.5676669875441669    0.2396050645141406    0.8496394744151263 V
   0.6787780986552779    0.5729383978474740    0.8496394744151263 V
   0.7898892097663891    0.9062717311808074    0.8496394744151263 V
   0.9010003208775001    0.2396050645141406    0.8496394744151263 V
   0.0121114319886113    0.5729383978474740    0.8496394744151263 V
   0.1232225430997225    0.9062717311808074    0.8496394744151263 V
   0.0969660224385831    0.2075391434472807    0.7081357671254107 V
   0.2080771335496942    0.5408724767806140    0.7081357671254107 V
   0.3191882446608053    0.8742058101139474    0.7081357671254107 V
   0.4302993557719164    0.2075391434472807    0.7081357671254107 V
   0.5414104668830275    0.5408724767806140    0.7081357671254107 V
   0.6525215779941387    0.8742058101139474    0.7081357671254107 V
   0.7636326891052498    0.2075391434472807    0.7081357671254107 V
   0.8747438002163611    0.5408724767806140    0.7081357671254107 V
   0.9858549113274723    0.8742058101139474    0.7081357671254107 V
   0.1252561984503050    0.0146830792193853    0.7363086508745926 V
   0.2363673095614161    0.3480164125527185    0.7363086508745926 V
   0.3474784206725271    0.6813497458860519    0.7363086508745926 V
   0.4585895317836383    0.0146830792193853    0.7363086508745926 V
   0.5697006428947493    0.3480164125527185    0.7363086508745926 V
   0.6808117540058606    0.6813497458860519    0.7363086508745926 V
   0.7919228651169716    0.0146830792193853    0.7363086508745926 V
   0.9030339762280827    0.3480164125527185    0.7363086508745926 V
   0.0141450873391940    0.6813497458860519    0.7363086508745926 V
   0.4323329991225003    0.3159504774858575    0.5948049435848771 V
   0.5434441102336114    0.6492838108191907    0.5948049435848771 V
   0.6545552213447225    0.9826171441525242    0.5948049435848771 V
   0.7656663324558336    0.3159504774858575    0.5948049435848771 V
   0.8767774435669446    0.6492838108191907    0.5948049435848771 V
   0.9878885546780559    0.9826171441525242    0.5948049435848771 V
   0.0989996657891672    0.3159504774858575    0.5948049435848771 V
   0.2101107769002781    0.6492838108191907    0.5948049435848771 V
   0.3212218880113893    0.9826171441525242    0.5948049435848771 V
   0.1246666571595349    0.1255882271125593    0.6253499065633050 V
   0.2357777682706459    0.4589215604458927    0.6253499065633050 V
   0.3468888793817572    0.7922548937792259    0.6253499065633050 V
   0.4579999904928683    0.1255882271125593    0.6253499065633050 V
   0.5691111016039794    0.4589215604458927    0.6253499065633050 V
   0.6802222127150906    0.7922548937792259    0.6253499065633050 V
   0.7913333238262017    0.1255882271125593    0.6253499065633050 V
   0.9024444349373125    0.4589215604458927    0.6253499065633050 V
   0.0135555460484238    0.7922548937792259    0.6253499065633050 V
   0.1233740633641256    0.2354265034867323    0.5113581038550522 V
   0.2344851744752367    0.5687598368200657    0.5113581038550522 V
   0.3455962855863479    0.9020931701533990    0.5113581038550522 V
   0.4567073966974589    0.2354265034867323    0.5113581038550522 V
   0.5678185078085700    0.5687598368200657    0.5113581038550522 V
   0.6789296189196812    0.9020931701533990    0.5113581038550522 V
   0.7900407300307922    0.2354265034867323    0.5113581038550522 V
   0.9011518411419035    0.5687598368200657    0.5113581038550522 V
   0.0122629522530147    0.9020931701533990    0.5113581038550522 V
   0.3015639114947159    0.2945084513262262    0.9056181947747292 O
   0.4126750226058271    0.6278417846595595    0.9056181947747292 O
   0.5237861337169382    0.9611751179928929    0.9056181947747292 O
   0.6348972448280493    0.2945084513262262    0.9056181947747292 O
   0.7460083559391604    0.6278417846595595    0.9056181947747292 O
   0.8571194670502718    0.9611751179928929    0.9056181947747292 O
   0.9682305781613827    0.2945084513262262    0.9056181947747292 O
   0.0793416892724939    0.6278417846595595    0.9056181947747292 O
   0.1904528003836050    0.9611751179928929    0.9056181947747292 O
   0.1389592308043830    0.2551075211736628    0.9427951517190433 O
   0.2500703419154942    0.5884408545069961    0.9427951517190433 O
   0.3611814530266053    0.9217741878403295    0.9427951517190433 O
   0.4722925641377164    0.2551075211736628    0.9427951517190433 O
   0.5834036752488275    0.5884408545069961    0.9427951517190433 O
   0.6945147863599388    0.9217741878403295    0.9427951517190433 O
   0.8056258974710498    0.2551075211736628    0.9427951517190433 O
   0.9167370085821609    0.5884408545069961    0.9427951517190433 O
   0.0278481196932721    0.9217741878403295    0.9427951517190433 O
   0.0402401647081734    0.0610253668148470    0.9178702937351633 O
   0.1513512758192846    0.3943587001481804    0.9178702937351633 O
   0.2624623869303956    0.7276920334815137    0.9178702937351633 O
   0.3735734980415068    0.0610253668148470    0.9178702937351633 O
   0.4846846091526179    0.3943587001481804    0.9178702937351633 O
   0.5957957202637291    0.7276920334815137    0.9178702937351633 O
   0.7069068313748401    0.0610253668148470    0.9178702937351633 O
   0.8180179424859512    0.3943587001481804    0.9178702937351633 O
   0.9291290535970622    0.7276920334815137    0.9178702937351633 O
   0.1899024235292120    0.0687461810349934    0.7947138092318592 O
   0.3010135346403231    0.4020795143683267    0.7947138092318592 O
   0.4121246457514343    0.7354128477016600    0.7947138092318592 O
   0.5232357568625454    0.0687461810349934    0.7947138092318592 O
   0.6343468679736565    0.4020795143683267    0.7947138092318592 O
   0.7454579790847677    0.7354128477016600    0.7947138092318592 O
   0.8565690901958788    0.0687461810349934    0.7947138092318592 O
   0.9676802013069898    0.4020795143683267    0.7947138092318592 O
   0.0787913124181010    0.7354128477016600    0.7947138092318592 O
   0.1425356808227376    0.2706921902658075    0.8741830696464780 O
   0.2536467919338487    0.6040255235991409    0.8741830696464780 O
   0.3647579030449598    0.9373588569324742    0.8741830696464780 O
   0.4758690141560710    0.2706921902658075    0.8741830696464780 O
   0.5869801252671820    0.6040255235991409    0.8741830696464780 O
   0.6980912363782933    0.9373588569324742    0.8741830696464780 O
   0.8092023474894043    0.2706921902658075    0.8741830696464780 O
   0.9203134586005154    0.6040255235991409    0.8741830696464780 O
   0.0314245697116264    0.9373588569324742    0.8741830696464780 O
   0.3147876472969705    0.2962778183368862    0.8406589223906150 O
   0.4258987584080816    0.6296111516702194    0.8406589223906150 O
   0.5370098695191927    0.9629444850035529    0.8406589223906150 O
   0.6481209806303039    0.2962778183368862    0.8406589223906150 O
   0.7592320917414148    0.6296111516702194    0.8406589223906150 O
   0.8703432028525262    0.9629444850035529    0.8406589223906150 O
   0.9814543139636371    0.2962778183368862    0.8406589223906150 O
   0.0925654250747483    0.6296111516702194    0.8406589223906150 O
   0.2036765361858595    0.9629444850035529    0.8406589223906150 O
   0.2857841112639965    0.1689542436939981    0.8715467610818585 O
   0.3968952223751076    0.5022875770273314    0.8715467610818585 O
   0.5080063334862187    0.8356209103606648    0.8715467610818585 O
   0.6191174445973299    0.1689542436939981    0.8715467610818585 O
   0.7302285557084410    0.5022875770273314    0.8715467610818585 O
   0.8413396668195522    0.8356209103606648    0.8715467610818585 O
   0.9524507779306632    0.1689542436939981    0.8715467610818585 O
   0.0635618890417744    0.5022875770273314    0.8715467610818585 O
   0.1746730001528853    0.8356209103606648    0.8715467610818585 O
   0.3747102342212663    0.1693387841915426    0.8008711925846912 O
   0.4858213453323774    0.5026721175248759    0.8008711925846912 O
   0.5969324564434885    0.8360054508582093    0.8008711925846912 O
   0.7080435675545996    0.1693387841915426    0.8008711925846912 O
   0.8191546786657110    0.5026721175248759    0.8008711925846912 O
   0.9302657897768218    0.8360054508582093    0.8008711925846912 O
   0.0413769008879330    0.1693387841915426    0.8008711925846912 O
   0.1524880119990439    0.5026721175248759    0.8008711925846912 O
   0.2635991231101551    0.8360054508582093    0.8008711925846912 O
   0.1969447177055848    0.2214744479744282    0.8136827043429329 O
   0.3080558288166959    0.5548077813077615    0.8136827043429329 O
   0.4191669399278071    0.8881411146410947    0.8136827043429329 O
   0.5302780510389181    0.2214744479744282    0.8136827043429329 O
   0.6413891621500292    0.5548077813077615    0.8136827043429329 O
   0.7525002732611407    0.8881411146410947    0.8136827043429329 O
   0.8636113843722517    0.2214744479744282    0.8136827043429329 O
   0.9747224954833629    0.5548077813077615    0.8136827043429329 O
   0.0858336065944738    0.8881411146410947    0.8136827043429329 O
   0.1331391556387615    0.1115408727016310    0.8552939399469348 O
   0.2442502667498726    0.4448742060349643    0.8552939399469348 O
   0.3553613778609838    0.7782075393682977    0.8552939399469348 O
   0.4664724889720948    0.1115408727016310    0.8552939399469348 O
   0.5775836000832060    0.4448742060349643    0.8552939399469348 O
   0.6886947111943171    0.7782075393682977    0.8552939399469348 O
   0.7998058223054282    0.1115408727016310    0.8552939399469348 O
   0.9109169334165391    0.4448742060349643    0.8552939399469348 O
   0.0220280445276502    0.7782075393682977    0.8552939399469348 O
   0.1890212792325846    0.1789540647555160    0.6837593334540840 O
   0.3001323903436957    0.5122873980888493    0.6837593334540840 O
   0.4112435014548069    0.8456207314221825    0.6837593334540840 O
   0.5223546125659180    0.1789540647555160    0.6837593334540840 O
   0.6334657236770290    0.5122873980888493    0.6837593334540840 O
   0.7445768347881403    0.8456207314221825    0.6837593334540840 O
   0.8556879458992513    0.1789540647555160    0.6837593334540840 O
   0.9667990570103626    0.5122873980888493    0.6837593334540840 O
   0.0779101681214736    0.8456207314221825    0.6837593334540840 O
   0.0332009451007486    0.0432681642444849    0.7606850845459121 O
   0.1443120562118597    0.3766014975778182    0.7606850845459121 O
   0.2554231673229708    0.7099348309111516    0.7606850845459121 O
   0.3665342784340820    0.0432681642444849    0.7606850845459121 O
   0.4776453895451930    0.3766014975778182    0.7606850845459121 O
   0.5887565006563044    0.7099348309111516    0.7606850845459121 O
   0.6998676117674154    0.0432681642444849    0.7606850845459121 O
   0.8109787228785263    0.3766014975778182    0.7606850845459121 O
   0.9220898339896374    0.7099348309111516    0.7606850845459121 O
   0.3541005202508563    0.1487784767069703    0.7153280808098980 O
   0.4652116313619674    0.4821118100403036    0.7153280808098980 O
   0.5763227424730785    0.8154451433736369    0.7153280808098980 O
   0.6874338535841896    0.1487784767069703    0.7153280808098980 O
   0.7985449646953008    0.4821118100403036    0.7153280808098980 O
   0.9096560758064118    0.8154451433736369    0.7153280808098980 O
   0.0207671869175230    0.1487784767069703    0.7153280808098980 O
   0.1318782980286339    0.4821118100403036    0.7153280808098980 O
   0.2429894091397451    0.8154451433736369    0.7153280808098980 O
   0.2014550270824788    0.0734437472930315    0.7291163971901032 O
   0.3125661381935900    0.4067770806263648    0.7291163971901032 O
   0.4236772493047011    0.7401104139596980    0.7291163971901032 O
   0.5347883604158122    0.0734437472930315    0.7291163971901032 O
   0.6458994715269234    0.4067770806263648    0.7291163971901032 O
   0.7570105826380344    0.7401104139596980    0.7291163971901032 O
   0.8681216937491455    0.0734437472930315    0.7291163971901032 O
   0.9792328048602567    0.4067770806263648    0.7291163971901032 O
   0.0903439159713677    0.7401104139596980    0.7291163971901032 O
   0.2900494104297727    0.2761732224461120    0.7553185856519226 O
   0.4011605215408837    0.6095065557794452    0.7553185856519226 O
   0.5122716326519949    0.9428398891127786    0.7553185856519226 O
   0.6233827437631061    0.2761732224461120    0.7553185856519226 O
   0.7344938548742171    0.6095065557794452    0.7553185856519226 O
   0.8456049659853283    0.9428398891127786    0.7553185856519226 O
   0.9567160770964394    0.2761732224461120    0.7553185856519226 O
   0.0678271882075505    0.6095065557794452    0.7553185856519226 O
   0.1789382993186615    0.9428398891127786    0.7553185856519226 O
   0.3766172626813383    0.2793823198872231    0.6891258923480786 O
   0.4877283737924493    0.6127156532205564    0.6891258923480786 O
   0.5988394849035605    0.9460489865538898    0.6891258923480786 O
   0.7099505960146717    0.2793823198872231    0.6891258923480786 O
   0.8210617071257829    0.6127156532205564    0.6891258923480786 O
   0.9321728182368939    0.9460489865538898    0.6891258923480786 O
   0.0432839293480050    0.2793823198872231    0.6891258923480786 O
   0.1543950404591161    0.6127156532205564    0.6891258923480786 O
   0.2655061515702271    0.9460489865538898    0.6891258923480786 O
   0.1986924061140839    0.3323047436520617    0.6998736358661718 O
   0.3098035172251948    0.6656380769853950    0.6998736358661718 O
   0.4209146283363059    0.9989714103187284    0.6998736358661718 O
   0.5320257394474172    0.3323047436520617    0.6998736358661718 O
   0.6431368505585283    0.6656380769853950    0.6998736358661718 O
   0.7542479616696395    0.9989714103187284    0.6998736358661718 O
   0.8653590727807505    0.3323047436520617    0.6998736358661718 O
   0.9764701838918617    0.6656380769853950    0.6998736358661718 O
   0.0875812950029728    0.9989714103187284    0.6998736358661718 O
   0.1346409239970275    0.2232507986812733    0.7445707821338315 O
   0.2457520351081386    0.5565841320146067    0.7445707821338315 O
   0.3568631462192497    0.8899174653479399    0.7445707821338315 O
   0.4679742573303609    0.2232507986812733    0.7445707821338315 O
   0.5790853684414720    0.5565841320146067    0.7445707821338315 O
   0.6901964795525830    0.8899174653479399    0.7445707821338315 O
   0.8013075906636942    0.2232507986812733    0.7445707821338315 O
   0.9124187017748051    0.5565841320146067    0.7445707821338315 O
   0.0235298128859163    0.8899174653479399    0.7445707821338315 O
   0.1907976558439287    0.2848633717341922    0.5702614083535231 O
   0.3019087669550398    0.6181967050675256    0.5702614083535231 O
   0.4130198780661509    0.9515300384008589    0.5702614083535231 O
   0.5241309891772620    0.2848633717341922    0.5702614083535231 O
   0.6352421002883731    0.6181967050675256    0.5702614083535231 O
   0.7463532113994843    0.9515300384008589    0.5702614083535231 O
   0.8574643225105953    0.2848633717341922    0.5702614083535231 O
   0.9685754336217064    0.6181967050675256    0.5702614083535231 O
   0.0796865447328177    0.9515300384008589    0.5702614083535231 O
   0.3656531354707879    0.1534760479650076    0.6497306087681372 O
   0.4767642465818990    0.4868093812983408    0.6497306087681372 O
   0.5878753576930101    0.8201427146316742    0.6497306087681372 O
   0.6989864688041213    0.1534760479650076    0.6497306087681372 O
   0.8100975799152323    0.4868093812983408    0.6497306087681372 O
   0.9212086910263437    0.8201427146316742    0.6497306087681372 O
   0.0323198021374547    0.1534760479650076    0.6497306087681372 O
   0.1434309132485658    0.4868093812983408    0.6497306087681372 O
   0.2545420243596770    0.8201427146316742    0.6497306087681372 O
   0.3518790127030283    0.2592777436631137    0.6037854956093883 O
   0.4629901238141394    0.5926110769964469    0.6037854956093883 O
   0.5741012349252506    0.9259444103297803    0.6037854956093883 O
   0.6852123460363617    0.2592777436631137    0.6037854956093883 O
   0.7963234571474728    0.5926110769964469    0.6037854956093883 O
   0.9074345682585838    0.9259444103297803    0.6037854956093883 O
   0.0185456793696950    0.2592777436631137    0.6037854956093883 O
   0.1296567904808061    0.5926110769964469    0.6037854956093883 O
   0.2407679015919171    0.9259444103297803    0.6037854956093883 O
   0.2020517196322729    0.1846743331257526    0.6182886287758643 O
   0.3131628307433840    0.5180076664590859    0.6182886287758643 O
   0.4242739418544952    0.8513409997924192    0.6182886287758643 O
   0.5353850529656062    0.1846743331257526    0.6182886287758643 O
   0.6464961640767174    0.5180076664590859    0.6182886287758643 O
   0.7576072751878286    0.8513409997924192    0.6182886287758643 O
   0.8687183862989396    0.1846743331257526    0.6182886287758643 O
   0.9798294974100508    0.5180076664590859    0.6182886287758643 O
   0.0909406085211619    0.8513409997924192    0.6182886287758643 O
   0.1808453230009557    0.0528834394751245    0.6435732844153064 O
   0.2919564341120668    0.3862167728084578    0.6435732844153064 O
   0.4030675452231781    0.7195501061417910    0.6435732844153064 O
   0.5141786563342892    0.0528834394751245    0.6435732844153064 O
   0.6252897674454002    0.3862167728084578    0.6435732844153064 O
   0.7364008785565115    0.7195501061417910    0.6435732844153064 O
   0.8475119896676225    0.0528834394751245    0.6435732844153064 O
   0.9586231007787337    0.3862167728084578    0.6435732844153064 O
   0.0697342118898445    0.7195501061417910    0.6435732844153064 O
   0.2697714344026714    0.0532679753060021    0.5728976569181449 O
   0.3808825455137825    0.3866013086393355    0.5728976569181449 O
   0.4919936566248937    0.7199346419726688    0.5728976569181449 O
   0.6031047677360047    0.0532679753060021    0.5728976569181449 O
   0.7142158788471158    0.3866013086393355    0.5728976569181449 O
   0.8253269899582268    0.7199346419726688    0.5728976569181449 O
   0.9364381010693379    0.0532679753060021    0.5728976569181449 O
   0.0475492121804491    0.3866013086393355    0.5728976569181449 O
   0.1586603232915600    0.7199346419726688    0.5728976569181449 O
   0.0890830666945715    0.1106813462983691    0.5891504780530685 O
   0.2001941778056826    0.4440146796317025    0.5891504780530685 O
   0.3113052889167937    0.7773480129650358    0.5891504780530685 O
   0.4224164000279049    0.1106813462983691    0.5891504780530685 O
   0.5335275111390160    0.4440146796317025    0.5891504780530685 O
   0.6446386222501272    0.7773480129650358    0.5891504780530685 O
   0.7557497333612383    0.1106813462983691    0.5891504780530685 O
   0.8668608444723493    0.4440146796317025    0.5891504780530685 O
   0.9779719555834604    0.7773480129650358    0.5891504780530685 O
   0.3651027685052821    0.2610471106737736    0.5388262232252670 O
   0.4762138796163931    0.5943804440071070    0.5388262232252670 O
   0.5873249907275044    0.9277137773404402    0.5388262232252670 O
   0.6984361018386155    0.2610471106737736    0.5388262232252670 O
   0.8095472129497265    0.5943804440071070    0.5388262232252670 O
   0.9206583240608376    0.9277137773404402    0.5388262232252670 O
   0.0317694351719486    0.2610471106737736    0.5388262232252670 O
   0.1428805462830598    0.5943804440071070    0.5388262232252670 O
   0.2539916573941707    0.9277137773404402    0.5388262232252670 O
   0.1943740958622824    0.3004480408263370    0.5016493262809578 O
   0.3054852069733935    0.6337813741596704    0.5016493262809578 O
   0.4165963180845047    0.9671147074930038    0.5016493262809578 O
   0.5277074291956158    0.3004480408263370    0.5016493262809578 O
   0.6388185403067267    0.6337813741596704    0.5016493262809578 O
   0.7499296514178380    0.9671147074930038    0.5016493262809578 O
   0.8610407625289490    0.3004480408263370    0.5016493262809578 O
   0.9721518736400603    0.6337813741596704    0.5016493262809578 O
   0.0832629847511712    0.9671147074930038    0.5016493262809578 O
   0.1819820552918272    0.1611968521851530    0.5265741842648307 O
   0.2930931664029383    0.4945301855184863    0.5265741842648307 O
   0.4042042775140496    0.8278635188518196    0.5265741842648307 O
   0.5153153886251607    0.1611968521851530    0.5265741842648307 O
   0.6264264997362717    0.4945301855184863    0.5265741842648307 O
   0.7375376108473830    0.8278635188518196    0.5265741842648307 O
   0.8486487219584941    0.1611968521851530    0.5265741842648307 O
   0.9597598330696050    0.4945301855184863    0.5265741842648307 O
   0.0708709441807163    0.8278635188518196    0.5265741842648307 O
   0.4042763847469470    0.2229475020473917    0.4768518082258750 O
   0.5153874958580581    0.5562808353807251    0.4768518082258750 O
   0.6264986069691693    0.8896141687140583    0.4768518082258750 O
   0.7376097180802804    0.2229475020473917    0.4768518082258750 O
   0.8487208291913915    0.5562808353807251    0.4768518082258750 O
   0.9598319403025025    0.8896141687140583    0.4768518082258750 O
   0.0709430514136138    0.2229475020473917    0.4768518082258750 O
   0.1820541625247247    0.5562808353807251    0.4768518082258750 O
   0.2931652736358359    0.8896141687140583    0.4768518082258750 O
   0.1512791656974971    0.9992747132859426    0.9675926097741284 O
   0.2623902768086082    0.3326080466192760    0.9675926097741284 O
   0.3735013879197193    0.6659413799526093    0.9675926097741284 O
   0.4846124990308304    0.9992747132859426    0.9675926097741284 O
   0.5957236101419415    0.3326080466192760    0.9675926097741284 O
   0.7068347212530527    0.6659413799526093    0.9675926097741284 O
   0.8179458323641637    0.9992747132859426    0.9675926097741284 O
   0.9290569434752748    0.3326080466192760    0.9675926097741284 O
   0.0401680545863858    0.6659413799526093    0.9675926097741284 O
   0.0201705041455050    0.0375478932075792    0.8261558482241403 O
   0.1312816152566161    0.3708812265409125    0.8261558482241403 O
   0.2423927263677273    0.7042145598742459    0.8261558482241403 O
   0.3535038374788385    0.0375478932075792    0.8261558482241403 O
   0.4646149485899496    0.3708812265409125    0.8261558482241403 O
   0.5757260597010607    0.7042145598742459    0.8261558482241403 O
   0.6868371708121718    0.0375478932075792    0.8261558482241403 O
   0.7979482819232829    0.3708812265409125    0.8261558482241403 O
   0.9090593930343938    0.7042145598742459    0.8261558482241403 O
   0.0252774984055270    0.0007477673589062    0.6307617136570705 O
   0.1363886095166381    0.3340811006922395    0.6307617136570705 O
   0.2474997206277492    0.6674144340255728    0.6307617136570705 O
   0.3586108317388604    0.0007477673589062    0.6307617136570705 O
   0.4697219428499714    0.3340811006922395    0.6307617136570705 O
   0.5808330539610825    0.6674144340255728    0.6307617136570705 O
   0.6919441650721936    0.0007477673589062    0.6307617136570705 O
   0.8030552761833046    0.3340811006922395    0.6307617136570705 O
   0.9141663872944158    0.6674144340255728    0.6307617136570705 O
