V90 Bi90 O360
1.0
  15.5016274451999987    0.0000000000000000    0.0000000000000000
   2.5836036982000006   19.2657235769999993    0.0000000000000000
   2.5836022610999998    0.5596120891000000   42.5723132075999970
Bi V O
90 90 360
direct
   0.3768288657491014    0.2686769867858053    0.9818487719337458 Bi
   0.4879399768602125    0.6020103201191386    0.9818487719337458 Bi
   0.5990510879713236    0.9353436534524718    0.9818487719337458 Bi
   0.7101621990824348    0.2686769867858053    0.9818487719337458 Bi
   0.8212733101935460    0.6020103201191386    0.9818487719337458 Bi
   0.9323844213046572    0.9353436534524718    0.9818487719337458 Bi
   0.0434955324157680    0.2686769867858053    0.9818487719337458 Bi
   0.1546066435268791    0.6020103201191386    0.9818487719337458 Bi
   0.2657177546379903    0.9353436534524718    0.9818487719337458 Bi
   0.0722810696881022    0.1756929170607226    0.9061146948164649 Bi
   0.1833921807992133    0.5090262503940559    0.9061146948164649 Bi
   0.2945032919103243    0.8423595837273893    0.9061146948164649 Bi
   0.4056144030214355    0.1756929170607226    0.9061146948164649 Bi
   0.5167255141325466    0.5090262503940559    0.9061146948164649 Bi
   0.6278366252436578    0.8423595837273893    0.9061146948164649 Bi
   0.7389477363547688    0.1756929170607226    0.9061146948164649 Bi
   0.8500588474658800    0.5090262503940559    0.9061146948164649 Bi
   0.9611699585769911    0.8423595837273893    0.9061146948164649 Bi
   0.2661749801276713    0.0377741656791415    0.8731216299200777 Bi
   0.3772860912387824    0.3711074990124748    0.8731216299200777 Bi
   0.4883972023498936    0.7044408323458081    0.8731216299200777 Bi
   0.5995083134610047    0.0377741656791415    0.8731216299200777 Bi
   0.7106194245721158    0.3711074990124748    0.8731216299200777 Bi
   0.8217305356832268    0.7044408323458081    0.8731216299200777 Bi
   0.9328416467943379    0.0377741656791415    0.8731216299200777 Bi
   0.0439527579054491    0.3711074990124748    0.8731216299200777 Bi
   0.1550638690165600    0.7044408323458081    0.8731216299200777 Bi
   0.4032216036708968    0.2899754033453920    0.7920022523906659 Bi
   0.5143327147820080    0.6233087366787253    0.7920022523906659 Bi
   0.6254438258931192    0.9566420700120587    0.7920022523906659 Bi
   0.7365549370042302    0.2899754033453920    0.7920022523906659 Bi
   0.8476660481153414    0.6233087366787253    0.7920022523906659 Bi
   0.9587771592264526    0.9566420700120587    0.7920022523906659 Bi
   0.0698882703375636    0.2899754033453920    0.7920022523906659 Bi
   0.1809993814486748    0.6233087366787253    0.7920022523906659 Bi
   0.2921104925597857    0.9566420700120587    0.7920022523906659 Bi
   0.2636967293609618    0.1519460789322039    0.7636204963841882 Bi
   0.3748078404720728    0.4852794122655371    0.7636204963841882 Bi
   0.4859189515831841    0.8186127455988705    0.7636204963841882 Bi
   0.5970300626942951    0.1519460789322039    0.7636204963841882 Bi
   0.7081411738054062    0.4852794122655371    0.7636204963841882 Bi
   0.8192522849165172    0.8186127455988705    0.7636204963841882 Bi
   0.9303633960276283    0.1519460789322039    0.7636204963841882 Bi
   0.0414745071387395    0.4852794122655371    0.7636204963841882 Bi
   0.1525856182498504    0.8186127455988705    0.7636204963841882 Bi
   0.2918588178612587    0.0702761447344610    0.6808239216158152 Bi
   0.4029699289723698    0.4036094780677943    0.6808239216158152 Bi
   0.5140810400834810    0.7369428114011277    0.6808239216158152 Bi
   0.6251921511945920    0.0702761447344610    0.6808239216158152 Bi
   0.7363032623057032    0.4036094780677943    0.6808239216158152 Bi
   0.8474143734168141    0.7369428114011277    0.6808239216158152 Bi
   0.9585254845279252    0.0702761447344610    0.6808239216158152 Bi
   0.0696365956390363    0.4036094780677943    0.6808239216158152 Bi
   0.1807477067501475    0.7369428114011277    0.6808239216158152 Bi
   0.2634450564402157    0.2655801589879422    0.6524421656093374 Bi
   0.3745561675513267    0.5989134923212756    0.6524421656093374 Bi
   0.4856672786624378    0.9322468256546088    0.6524421656093374 Bi
   0.5967783897735489    0.2655801589879422    0.6524421656093374 Bi
   0.7078895008846601    0.5989134923212756    0.6524421656093374 Bi
   0.8190006119957713    0.9322468256546088    0.6524421656093374 Bi
   0.9301117231068824    0.2655801589879422    0.6524421656093374 Bi
   0.0412228342179937    0.5989134923212756    0.6524421656093374 Bi
   0.1523339453291048    0.9322468256546088    0.6524421656093374 Bi
   0.2893805687612187    0.1844480629875250    0.5713228480799235 Bi
   0.4004916798723299    0.5177813963208584    0.5713228480799235 Bi
   0.5116027909834410    0.8511147296541915    0.5713228480799235 Bi
   0.6227139020945520    0.1844480629875250    0.5713228480799235 Bi
   0.7338250132056631    0.5177813963208584    0.5713228480799235 Bi
   0.8449361243167745    0.8511147296541915    0.5713228480799235 Bi
   0.9560472354278855    0.1844480629875250    0.5713228480799235 Bi
   0.0671583465389967    0.5177813963208584    0.5713228480799235 Bi
   0.1782694576501076    0.8511147296541915    0.5713228480799235 Bi
   0.1499411538674527    0.0465293116059439    0.5383297231835384 Bi
   0.2610522649785639    0.3798626449392772    0.5383297231835384 Bi
   0.3721633760896750    0.7131959782726106    0.5383297231835384 Bi
   0.4832744872007863    0.0465293116059439    0.5383297231835384 Bi
   0.5943855983118973    0.3798626449392772    0.5383297231835384 Bi
   0.7054967094230084    0.7131959782726106    0.5383297231835384 Bi
   0.8166078205341195    0.0465293116059439    0.5383297231835384 Bi
   0.9277189316452303    0.3798626449392772    0.5383297231835384 Bi
   0.0388300427563415    0.7131959782726106    0.5383297231835384 Bi
   0.2898377943620113    0.2868785755475290    0.4625957050662516 Bi
   0.4009489054731225    0.6202119088808624    0.4625957050662516 Bi
   0.5120600165842335    0.9535452422141957    0.4625957050662516 Bi
   0.6231711276953447    0.2868785755475290    0.4625957050662516 Bi
   0.7342822388064557    0.6202119088808624    0.4625957050662516 Bi
   0.8453933499175669    0.9535452422141957    0.4625957050662516 Bi
   0.9565044610286779    0.2868785755475290    0.4625957050662516 Bi
   0.0676155721397891    0.6202119088808624    0.4625957050662516 Bi
   0.1787266832509002    0.9535452422141957    0.4625957050662516 Bi
   0.2063539840504594    0.3191279722882459    0.9301664081046143 V
   0.3174650951615706    0.6524613056215792    0.9301664081046143 V
   0.4285762062726817    0.9857946389549125    0.9301664081046143 V
   0.5396873173837928    0.3191279722882459    0.9301664081046143 V
   0.6507984284949039    0.6524613056215792    0.9301664081046143 V
   0.7619095396060150    0.9857946389549125    0.9301664081046143 V
   0.8730206507171261    0.3191279722882459    0.9301664081046143 V
   0.9841317618282373    0.6524613056215792    0.9301664081046143 V
   0.0952428729393482    0.9857946389549125    0.9301664081046143 V
   0.2405386976938466    0.1292862949592912    0.9638269238457504 V
   0.3516498088049577    0.4626196282926245    0.9638269238457504 V
   0.4627609199160690    0.7959529616259579    0.9638269238457504 V
   0.5738720310271801    0.1292862949592912    0.9638269238457504 V
   0.6849831421382910    0.4626196282926245    0.9638269238457504 V
   0.7960942532494024    0.7959529616259579    0.9638269238457504 V
   0.9072053643605135    0.1292862949592912    0.9638269238457504 V
   0.0183164754716245    0.4626196282926245    0.9638269238457504 V
   0.1294275865827355    0.7959529616259579    0.9638269238457504 V
   0.0965637601177177    0.0960108132987459    0.8193302932933928 V
   0.2076748712288288    0.4293441466320792    0.8193302932933928 V
   0.3187859823399399    0.7626774799654126    0.8193302932933928 V
   0.4298970934510511    0.0960108132987459    0.8193302932933928 V
   0.5410082045621623    0.4293441466320792    0.8193302932933928 V
   0.6521193156732734    0.7626774799654126    0.8193302932933928 V
   0.7632304267843845    0.0960108132987459    0.8193302932933928 V
   0.8743415378954954    0.4293441466320792    0.8193302932933928 V
   0.9854526490066066    0.7626774799654126    0.8193302932933928 V
   0.2367767423679626    0.2358486577364708    0.8479187954210738 V
   0.3478878534790737    0.5691819910698042    0.8479187954210738 V
   0.4589989645901848    0.9025153244031375    0.8479187954210738 V
   0.5701100757012960    0.2358486577364708    0.8479187954210738 V
   0.6812211868124072    0.5691819910698042    0.8479187954210738 V
   0.7923322979235182    0.9025153244031375    0.8479187954210738 V
   0.9034434090346294    0.2358486577364708    0.8479187954210738 V
   0.0145545201457402    0.5691819910698042    0.8479187954210738 V
   0.1256656312568514    0.9025153244031375    0.8479187954210738 V
   0.0967201634486568    0.2080094551865514    0.7080862090911566 V
   0.2078312745597679    0.5413427885198847    0.7080862090911566 V
   0.3189423856708790    0.8746761218532180    0.7080862090911566 V
   0.4300534967819902    0.2080094551865514    0.7080862090911566 V
   0.5411646078931012    0.5413427885198847    0.7080862090911566 V
   0.6522757190042124    0.8746761218532180    0.7080862090911566 V
   0.7633868301153235    0.2080094551865514    0.7080862090911566 V
   0.8744979412264344    0.5413427885198847    0.7080862090911566 V
   0.9856090523375455    0.8746761218532180    0.7080862090911566 V
   0.1255020574402313    0.0142127674801146    0.7363582089088467 V
   0.2366131685513425    0.3475461008134479    0.7363582089088467 V
   0.3477242796624535    0.6808794341467813    0.7363582089088467 V
   0.4588353907735647    0.0142127674801146    0.7363582089088467 V
   0.5699465018846757    0.3475461008134479    0.7363582089088467 V
   0.6810576129957869    0.6808794341467813    0.7363582089088467 V
   0.7921687241068980    0.0142127674801146    0.7363582089088467 V
   0.9032798352180091    0.3475461008134479    0.7363582089088467 V
   0.0143909463291201    0.6808794341467813    0.7363582089088467 V
   0.4298899109653714    0.3197068842635273    0.5965256225789295 V
   0.5410010220764824    0.6530402175968607    0.5965256225789295 V
   0.6521121331875936    0.9863735509301940    0.5965256225789295 V
   0.7632232442987047    0.3197068842635273    0.5965256225789295 V
   0.8743343554098159    0.6530402175968607    0.5965256225789295 V
   0.9854454665209272    0.9863735509301940    0.5965256225789295 V
   0.0965565776320383    0.3197068842635273    0.5965256225789295 V
   0.2076676887431494    0.6530402175968607    0.5965256225789295 V
   0.3187787998542606    0.9863735509301940    0.5965256225789295 V
   0.1256584618822831    0.1262114057012543    0.6251141247066035 V
   0.2367695729933943    0.4595447390345876    0.6251141247066035 V
   0.3478806841045053    0.7928780723679210    0.6251141247066035 V
   0.4589917952156165    0.1262114057012543    0.6251141247066035 V
   0.5701029063267277    0.4595447390345876    0.6251141247066035 V
   0.6812140174378387    0.7928780723679210    0.6251141247066035 V
   0.7923251285489498    0.1262114057012543    0.6251141247066035 V
   0.9034362396600607    0.4595447390345876    0.6251141247066035 V
   0.0145473507711720    0.7928780723679210    0.6251141247066035 V
   0.3150168479728213    0.0929359240407089    0.4806174941542529 V
   0.4261279590839323    0.4262692573740423    0.4806174941542529 V
   0.5372390701950435    0.7596025907073756    0.4806174941542529 V
   0.6483501813061546    0.0929359240407089    0.4806174941542529 V
   0.7594612924172657    0.4262692573740423    0.4806174941542529 V
   0.8705724035283768    0.7596025907073756    0.4806174941542529 V
   0.9816835146394879    0.0929359240407089    0.4806174941542529 V
   0.0927946257505992    0.4262692573740423    0.4806174941542529 V
   0.2039057368617101    0.7596025907073756    0.4806174941542529 V
   0.1269793409495404    0.2364275697117523    0.5142780688953833 V
   0.2380904520606515    0.5697609030450856    0.5142780688953833 V
   0.3492015631717626    0.9030942363784188    0.5142780688953833 V
   0.4603126742828737    0.2364275697117523    0.5142780688953833 V
   0.5714237853939849    0.5697609030450856    0.5142780688953833 V
   0.6825348965050960    0.9030942363784188    0.5142780688953833 V
   0.7936460076162071    0.2364275697117523    0.5142780688953833 V
   0.9047571187273181    0.5697609030450856    0.5142780688953833 V
   0.0158682298384292    0.9030942363784188    0.5142780688953833 V
   0.2939993463295458    0.2879109454831362    0.9058407275752579 O
   0.4051104574406569    0.6212442788164695    0.9058407275752579 O
   0.5162215685517680    0.9545776121498029    0.9058407275752579 O
   0.6273326796628793    0.2879109454831362    0.9058407275752579 O
   0.7384437907739904    0.6212442788164695    0.9058407275752579 O
   0.8495549018851014    0.9545776121498029    0.9058407275752579 O
   0.9606660129962125    0.2879109454831362    0.9058407275752579 O
   0.0717771241073235    0.6212442788164695    0.9058407275752579 O
   0.1828882352184347    0.9545776121498029    0.9058407275752579 O
   0.1694151259740002    0.1759282152883335    0.9892493915049621 O
   0.2805262370851114    0.5092615486216667    0.9892493915049621 O
   0.3916373481962225    0.8425948819550001    0.9892493915049621 O
   0.5027484593073338    0.1759282152883335    0.9892493915049621 O
   0.6138595704184449    0.5092615486216667    0.9892493915049621 O
   0.7249706815295558    0.8425948819550001    0.9892493915049621 O
   0.8360817926406670    0.1759282152883335    0.9892493915049621 O
   0.9471929037517781    0.5092615486216667    0.9892493915049621 O
   0.0583040148628891    0.8425948819550001    0.9892493915049621 O
   0.1200087098476874    0.2656745266473891    0.9374398135649484 O
   0.2311198209587984    0.5990078599807225    0.9374398135649484 O
   0.3422309320699096    0.9323411933140557    0.9374398135649484 O
   0.4533420431810207    0.2656745266473891    0.9374398135649484 O
   0.5644531542921317    0.5990078599807225    0.9374398135649484 O
   0.6755642654032430    0.9323411933140557    0.9374398135649484 O
   0.7866753765143540    0.2656745266473891    0.9374398135649484 O
   0.8977864876254652    0.5990078599807225    0.9374398135649484 O
   0.0088975987365763    0.9323411933140557    0.9374398135649484 O
   0.3299596764190791    0.1804087739242912    0.9553377150153242 O
   0.4410707875301902    0.5137421072576246    0.9553377150153242 O
   0.5521818986413014    0.8470754405909579    0.9553377150153242 O
   0.6632930097524125    0.1804087739242912    0.9553377150153242 O
   0.7744041208635236    0.5137421072576246    0.9553377150153242 O
   0.8855152319746349    0.8470754405909579    0.9553377150153242 O
   0.9966263430857460    0.1804087739242912    0.9553377150153242 O
   0.1077374541968570    0.5137421072576246    0.9553377150153242 O
   0.2188485653079681    0.8470754405909579    0.9553377150153242 O
   0.2805974059678001    0.0509479588966488    0.9803396754130972 O
   0.3917085170789111    0.3842812922299821    0.9803396754130972 O
   0.5028196281900222    0.7176146255633155    0.9803396754130972 O
   0.6139307393011334    0.0509479588966488    0.9803396754130972 O
   0.7250418504122444    0.3842812922299821    0.9803396754130972 O
   0.8361529615233556    0.7176146255633155    0.9803396754130972 O
   0.9472640726344668    0.0509479588966488    0.9803396754130972 O
   0.0583751837455777    0.3842812922299821    0.9803396754130972 O
   0.1694862948566889    0.7176146255633155    0.9803396754130972 O
   0.0431916619200916    0.0604952824933052    0.9123217958719025 O
   0.1543027730312027    0.3938286158266385    0.9123217958719025 O
   0.2654138841423137    0.7271619491599718    0.9123217958719025 O
   0.3765249952534249    0.0604952824933052    0.9123217958719025 O
   0.4876361063645360    0.3938286158266385    0.9123217958719025 O
   0.5987472174756473    0.7271619491599718    0.9123217958719025 O
   0.7098583285867583    0.0604952824933052    0.9123217958719025 O
   0.8209694396978694    0.3938286158266385    0.9123217958719025 O
   0.9320805508089806    0.7271619491599718    0.9123217958719025 O
   0.1940486024149115    0.1191303508031503    0.9279479069877286 O
   0.3051597135260224    0.4524636841364836    0.9279479069877286 O
   0.4162708246371337    0.7857970174698169    0.9279479069877286 O
   0.5273819357482448    0.1191303508031503    0.9279479069877286 O
   0.6384930468593558    0.4524636841364836    0.9279479069877286 O
   0.7496041579704672    0.7857970174698169    0.9279479069877286 O
   0.8607152690815782    0.1191303508031503    0.9279479069877286 O
   0.9718263801926894    0.4524636841364836    0.9279479069877286 O
   0.0829374913038003    0.7857970174698169    0.9279479069877286 O
   0.2465315334816691    0.3261098541222769    0.9660877719197610 O
   0.3576426445927802    0.6594431874556104    0.9660877719197610 O
   0.4687537557038913    0.9927765207889436    0.9660877719197610 O
   0.5798648668150024    0.3261098541222769    0.9660877719197610 O
   0.6909759779261134    0.6594431874556104    0.9660877719197610 O
   0.8020870890372249    0.9927765207889436    0.9660877719197610 O
   0.9131982001483360    0.3261098541222769    0.9660877719197610 O
   0.0243093112594470    0.6594431874556104    0.9660877719197610 O
   0.1354204223705580    0.9927765207889436    0.9660877719197610 O
   0.1878041984194090    0.0679780669556212    0.7948859102255650 O
   0.2989153095305201    0.4013114002889545    0.7948859102255650 O
   0.4100264206416314    0.7346447336222879    0.7948859102255650 O
   0.5211375317527426    0.0679780669556212    0.7948859102255650 O
   0.6322486428638536    0.4013114002889545    0.7948859102255650 O
   0.7433597539749648    0.7346447336222879    0.7948859102255650 O
   0.8544708650860759    0.0679780669556212    0.7948859102255650 O
   0.9655819761971868    0.4013114002889545    0.7948859102255650 O
   0.0766930873082978    0.7346447336222879    0.7948859102255650 O
   0.1457801010541979    0.2656629613392332    0.8722793952798703 O
   0.2568912121653089    0.5989962946725665    0.8722793952798703 O
   0.3680023232764201    0.9323296280058999    0.8722793952798703 O
   0.4791134343875312    0.2656629613392332    0.8722793952798703 O
   0.5902245454986423    0.5989962946725665    0.8722793952798703 O
   0.7013356566097537    0.9323296280058999    0.8722793952798703 O
   0.8124467677208648    0.2656629613392332    0.8722793952798703 O
   0.9235578788319759    0.5989962946725665    0.8722793952798703 O
   0.0346689899430868    0.9323296280058999    0.8722793952798703 O
   0.0187970323077441    0.0374195365277718    0.8266770075014630 O
   0.1299081434188552    0.3707528698611052    0.8266770075014630 O
   0.2410192545299663    0.7040862031944385    0.8266770075014630 O
   0.3521303656410775    0.0374195365277718    0.8266770075014630 O
   0.4632414767521886    0.3707528698611052    0.8266770075014630 O
   0.5743525878632998    0.7040862031944385    0.8266770075014630 O
   0.6854636989744110    0.0374195365277718    0.8266770075014630 O
   0.7965748100855220    0.3707528698611052    0.8266770075014630 O
   0.9076859211966330    0.7040862031944385    0.8266770075014630 O
   0.3147295696162922    0.2944426870689588    0.8405830776147544 O
   0.4258406807274033    0.6277760204022921    0.8405830776147544 O
   0.5369517918385145    0.9611093537356254    0.8405830776147544 O
   0.6480629029496257    0.2944426870689588    0.8405830776147544 O
   0.7591740140607366    0.6277760204022921    0.8405830776147544 O
   0.8702851251718478    0.9611093537356254    0.8405830776147544 O
   0.9813962362829587    0.2944426870689588    0.8405830776147544 O
   0.0925073473940698    0.6277760204022921    0.8405830776147544 O
   0.2036184585051810    0.9611093537356254    0.8405830776147544 O
   0.2877497951045492    0.1625830490044306    0.8657011809496924 O
   0.3988609062156604    0.4959163823377639    0.8657011809496924 O
   0.5099720173267716    0.8292497156710973    0.8657011809496924 O
   0.6210831284378827    0.1625830490044306    0.8657011809496924 O
   0.7321942395489939    0.4959163823377639    0.8657011809496924 O
   0.8433053506601048    0.8292497156710973    0.8657011809496924 O
   0.9544164617712159    0.1625830490044306    0.8657011809496924 O
   0.0655275728823270    0.4959163823377639    0.8657011809496924 O
   0.1766386839934382    0.8292497156710973    0.8657011809496924 O
   0.3758690718840000    0.1685591842380615    0.8007172073926095 O
   0.4869801829951112    0.5018925175713949    0.8007172073926095 O
   0.5980912941062223    0.8352258509047280    0.8007172073926095 O
   0.7092024052173334    0.1685591842380615    0.8007172073926095 O
   0.8203135163284445    0.5018925175713949    0.8007172073926095 O
   0.9314246274395557    0.8352258509047280    0.8007172073926095 O
   0.0425357385506666    0.1685591842380615    0.8007172073926095 O
   0.1536468496617778    0.5018925175713949    0.8007172073926095 O
   0.2647579607728889    0.8352258509047280    0.8007172073926095 O
   0.1981732908482144    0.2213815274130105    0.8112954095709217 O
   0.3092844019593255    0.5547148607463438    0.8112954095709217 O
   0.4203955130704366    0.8880481940796772    0.8112954095709217 O
   0.5315066241815477    0.2213815274130105    0.8112954095709217 O
   0.6426177352926588    0.5547148607463438    0.8112954095709217 O
   0.7537288464037699    0.8880481940796772    0.8112954095709217 O
   0.8648399575148810    0.2213815274130105    0.8112954095709217 O
   0.9759510686259920    0.5547148607463438    0.8112954095709217 O
   0.0870621797371032    0.8880481940796772    0.8112954095709217 O
   0.1349285308200652    0.1097914691702139    0.8555009311792596 O
   0.2460396419311763    0.4431248025035472    0.8555009311792596 O
   0.3571507530422875    0.7764581358368805    0.8555009311792596 O
   0.4682618641533987    0.1097914691702139    0.8555009311792596 O
   0.5793729752645097    0.4431248025035472    0.8555009311792596 O
   0.6904840863756210    0.7764581358368805    0.8555009311792596 O
   0.8015951974867320    0.1097914691702139    0.8555009311792596 O
   0.9127063085978432    0.4431248025035472    0.8555009311792596 O
   0.0238174197089542    0.7764581358368805    0.8555009311792596 O
   0.1882354603274704    0.1798422883999561    0.6836273285420810 O
   0.2993465714385815    0.5131756217332895    0.6836273285420810 O
   0.4104576825496926    0.8465089550666227    0.6836273285420810 O
   0.5215687936608037    0.1798422883999561    0.6836273285420810 O
   0.6326799047719148    0.5131756217332895    0.6836273285420810 O
   0.7437910158830260    0.8465089550666227    0.6836273285420810 O
   0.8549021269941370    0.1798422883999561    0.6836273285420810 O
   0.9660132381052482    0.5131756217332895    0.6836273285420810 O
   0.0771243492163594    0.8465089550666227    0.6836273285420810 O
   0.0339867640058628    0.0423799406000449    0.7608170894579152 O
   0.1450978751169740    0.3757132739333782    0.7608170894579152 O
   0.2562089862280851    0.7090466072667114    0.7608170894579152 O
   0.3673200973391962    0.0423799406000449    0.7608170894579152 O
   0.4784312084503074    0.3757132739333782    0.7608170894579152 O
   0.5895423195614184    0.7090466072667114    0.7608170894579152 O
   0.7006534306725295    0.0423799406000449    0.7608170894579152 O
   0.8117645417836405    0.3757132739333782    0.7608170894579152 O
   0.9228756528947517    0.7090466072667114    0.7608170894579152 O
   0.3542015622084432    0.1491230368644126    0.7151767591908159 O
   0.4653126733195543    0.4824563701977460    0.7151767591908159 O
   0.5764237844306654    0.8157897035310793    0.7151767591908159 O
   0.6875348955417766    0.1491230368644126    0.7151767591908159 O
   0.7986460066528877    0.4824563701977460    0.7151767591908159 O
   0.9097571177639988    0.8157897035310793    0.7151767591908159 O
   0.0208682288751096    0.1491230368644126    0.7151767591908159 O
   0.1319793399862208    0.4824563701977460    0.7151767591908159 O
   0.2430904510973320    0.8157897035310793    0.7151767591908159 O
   0.2013539851248919    0.0730991871355891    0.7292677188091853 O
   0.3124650962360030    0.4064325204689224    0.7292677188091853 O
   0.4235762073471143    0.7397658538022557    0.7292677188091853 O
   0.5346873184582253    0.0730991871355891    0.7292677188091853 O
   0.6457984295693364    0.4064325204689224    0.7292677188091853 O
   0.7569095406804475    0.7397658538022557    0.7292677188091853 O
   0.8680206517915585    0.0730991871355891    0.7292677188091853 O
   0.9791317629026698    0.4064325204689224    0.7292677188091853 O
   0.0902428740137811    0.7397658538022557    0.7292677188091853 O
   0.2908489419536927    0.2752176208903659    0.7549088616447854 O
   0.4019600530648038    0.6085509542236992    0.7549088616447854 O
   0.5130711641759150    0.9418842875570327    0.7549088616447854 O
   0.6241822752870262    0.2752176208903659    0.7549088616447854 O
   0.7352933863981372    0.6085509542236992    0.7549088616447854 O
   0.8464044975092483    0.9418842875570327    0.7549088616447854 O
   0.9575156086203594    0.2752176208903659    0.7549088616447854 O
   0.0686267197314705    0.6085509542236992    0.7549088616447854 O
   0.1797378308425814    0.9418842875570327    0.7549088616447854 O
   0.3758177311574182    0.2803379214429690    0.6895356163552157 O
   0.4869288422685293    0.6136712547763025    0.6895356163552157 O
   0.5980399533796406    0.9470045881096357    0.6895356163552157 O
   0.7091510644907516    0.2803379214429690    0.6895356163552157 O
   0.8202621756018627    0.6136712547763025    0.6895356163552157 O
   0.9313732867129736    0.9470045881096357    0.6895356163552157 O
   0.0424843978240848    0.2803379214429690    0.6895356163552157 O
   0.1535955089351959    0.6136712547763025    0.6895356163552157 O
   0.2647066200463069    0.9470045881096357    0.6895356163552157 O
   0.1980010309435747    0.3326873399403004    0.6998931585459854 O
   0.3091121420546859    0.6660206732736336    0.6998931585459854 O
   0.4202232531657970    0.9993540066069670    0.6998931585459854 O
   0.5313343642769082    0.3326873399403004    0.6998931585459854 O
   0.6424454753880192    0.6660206732736336    0.6998931585459854 O
   0.7535565864991303    0.9993540066069670    0.6998931585459854 O
   0.8646676976102413    0.3326873399403004    0.6998931585459854 O
   0.9757788087213525    0.6660206732736336    0.6998931585459854 O
   0.0868899198324635    0.9993540066069670    0.6998931585459854 O
   0.1353322991675366    0.2228682023930347    0.7445512594540179 O
   0.2464434102786477    0.5562015357263680    0.7445512594540179 O
   0.3575545213897589    0.8895348690597012    0.7445512594540179 O
   0.4686656325008700    0.2228682023930347    0.7445512594540179 O
   0.5797767436119811    0.5562015357263680    0.7445512594540179 O
   0.6908878547230923    0.8895348690597012    0.7445512594540179 O
   0.8019989658342034    0.2228682023930347    0.7445512594540179 O
   0.9131100769453143    0.5562015357263680    0.7445512594540179 O
   0.0242211880564254    0.8895348690597012    0.7445512594540179 O
   0.1875532356124683    0.2898926006607666    0.5721650827201310 O
   0.2986643467235793    0.6232259339941000    0.5721650827201310 O
   0.4097754578346904    0.9565592673274332    0.5721650827201310 O
   0.5208865689458017    0.2898926006607666    0.5721650827201310 O
   0.6319976800569128    0.6232259339941000    0.5721650827201310 O
   0.7431087911680240    0.9565592673274332    0.5721650827201310 O
   0.8542199022791350    0.2898926006607666    0.5721650827201310 O
   0.9653310133902460    0.6232259339941000    0.5721650827201310 O
   0.0764421245013571    0.9565592673274332    0.5721650827201310 O
   0.3677513605805909    0.1542441620443798    0.6495585077744314 O
   0.4788624716917020    0.4875774953777131    0.6495585077744314 O
   0.5899735828028132    0.8209108287110464    0.6495585077744314 O
   0.7010846939139244    0.1542441620443798    0.6495585077744314 O
   0.8121958050250353    0.4875774953777131    0.6495585077744314 O
   0.9233069161361467    0.8209108287110464    0.6495585077744314 O
   0.0344180272472578    0.1542441620443798    0.6495585077744314 O
   0.1455291383583688    0.4875774953777131    0.6495585077744314 O
   0.2566402494694799    0.8209108287110464    0.6495585077744314 O
   0.3519370903837066    0.2611128749310410    0.6038613403852490 O
   0.4630482014948177    0.5944462082643744    0.6038613403852490 O
   0.5741593126059288    0.9277795415977077    0.6038613403852490 O
   0.6852704237170399    0.2611128749310410    0.6038613403852490 O
   0.7963815348281511    0.5944462082643744    0.6038613403852490 O
   0.9074926459392623    0.9277795415977077    0.6038613403852490 O
   0.0186037570503734    0.2611128749310410    0.6038613403852490 O
   0.1297148681614844    0.5944462082643744    0.6038613403852490 O
   0.2408259792725955    0.9277795415977077    0.6038613403852490 O
   0.2034251914700339    0.1848026898055599    0.6177674694985417 O
   0.3145363025811450    0.5181360231388933    0.6177674694985417 O
   0.4256474136922561    0.8514693564722264    0.6177674694985417 O
   0.5367585248033672    0.1848026898055599    0.6177674694985417 O
   0.6478696359144782    0.5181360231388933    0.6177674694985417 O
   0.7589807470255894    0.8514693564722264    0.6177674694985417 O
   0.8700918581367004    0.1848026898055599    0.6177674694985417 O
   0.9812029692478115    0.5181360231388933    0.6177674694985417 O
   0.0923140803589226    0.8514693564722264    0.6177674694985417 O
   0.1796864853382244    0.0536630394286057    0.6437272696073880 O
   0.2907975964493356    0.3869963727619391    0.6437272696073880 O
   0.4019087075604467    0.7203297060952725    0.6437272696073880 O
   0.5130198186715578    0.0536630394286057    0.6437272696073880 O
   0.6241309297826688    0.3869963727619391    0.6437272696073880 O
   0.7352420408937801    0.7203297060952725    0.6437272696073880 O
   0.8463531520048913    0.0536630394286057    0.6437272696073880 O
   0.9574642631160022    0.3869963727619391    0.6437272696073880 O
   0.0685753742271134    0.7203297060952725    0.6437272696073880 O
   0.2678057505621187    0.0596391699955696    0.5787432370503111 O
   0.3789168616732298    0.3929725033289029    0.5787432370503111 O
   0.4900279727843410    0.7263058366622362    0.5787432370503111 O
   0.6011390838954521    0.0596391699955696    0.5787432370503111 O
   0.7122501950065632    0.3929725033289029    0.5787432370503111 O
   0.8233613061176742    0.7263058366622362    0.5787432370503111 O
   0.9344724172287853    0.0596391699955696    0.5787432370503111 O
   0.0455835283398964    0.3929725033289029    0.5787432370503111 O
   0.1566946394510074    0.7263058366622362    0.5787432370503111 O
   0.0872936915132677    0.1124307498297863    0.5889434868207437 O
   0.1984048026243788    0.4457640831631197    0.5889434868207437 O
   0.3095159137354899    0.7790974164964530    0.5889434868207437 O
   0.4206270248466009    0.1124307498297863    0.5889434868207437 O
   0.5317381359577120    0.4457640831631197    0.5889434868207437 O
   0.6428492470688232    0.7790974164964530    0.5889434868207437 O
   0.7539603581799342    0.1124307498297863    0.5889434868207437 O
   0.8650714692910455    0.4457640831631197    0.5889434868207437 O
   0.9761825804021567    0.7790974164964530    0.5889434868207437 O
   0.0240489252628974    0.0008406879203239    0.6331490084290816 O
   0.1351600363740086    0.3341740212536571    0.6331490084290816 O
   0.2462711474851196    0.6675073545869905    0.6331490084290816 O
   0.3573822585962308    0.0008406879203239    0.6331490084290816 O
   0.4684933697073418    0.3341740212536571    0.6331490084290816 O
   0.5796044808184531    0.6675073545869905    0.6331490084290816 O
   0.6907155919295641    0.0008406879203239    0.6331490084290816 O
   0.8018267030406753    0.3341740212536571    0.6331490084290816 O
   0.9129378141517864    0.6675073545869905    0.6331490084290816 O
   0.0528070946926671    0.0462940137116675    0.4551950854950428 O
   0.1639182058037783    0.3796273470450008    0.4551950854950428 O
   0.2750293169148894    0.7129606803783342    0.4551950854950428 O
   0.3861404280260005    0.0462940137116675    0.4551950854950428 O
   0.4972515391371115    0.3796273470450008    0.4551950854950428 O
   0.6083626502482228    0.7129606803783342    0.4551950854950428 O
   0.7194737613593338    0.0462940137116675    0.4551950854950428 O
   0.8305848724704449    0.3796273470450008    0.4551950854950428 O
   0.9416959835815559    0.7129606803783342    0.4551950854950428 O
   0.3726673336704522    0.2676446165168636    0.5386036904247382 O
   0.4837784447815633    0.6009779498501969    0.5386036904247382 O
   0.5948895558926744    0.9343112831835301    0.5386036904247382 O
   0.7060006670037856    0.2676446165168636    0.5386036904247382 O
   0.8171117781148968    0.6009779498501969    0.5386036904247382 O
   0.9282228892260078    0.9343112831835301    0.5386036904247382 O
   0.0393340003371190    0.2676446165168636    0.5386036904247382 O
   0.1504451114482301    0.6009779498501969    0.5386036904247382 O
   0.2615562225593411    0.9343112831835301    0.5386036904247382 O
   0.2255958716920325    0.0418134524090405    0.4891067329846816 O
   0.3367069828031437    0.3751467857423738    0.4891067329846816 O
   0.4478180939142548    0.7084801190757072    0.4891067329846816 O
   0.5589292050253659    0.0418134524090405    0.4891067329846816 O
   0.6700403161364771    0.3751467857423738    0.4891067329846816 O
   0.7811514272475881    0.7084801190757072    0.4891067329846816 O
   0.8922625383586992    0.0418134524090405    0.4891067329846816 O
   0.0033736494698102    0.3751467857423738    0.4891067329846816 O
   0.1144847605809214    0.7084801190757072    0.4891067329846816 O
   0.2133246168189780    0.2898810353526107    0.5070046644350528 O
   0.3244357279300891    0.6232143686859440    0.5070046644350528 O
   0.4355468390412003    0.9565477020192774    0.5070046644350528 O
   0.5466579501523113    0.2898810353526107    0.5070046644350528 O
   0.6577690612634225    0.6232143686859440    0.5070046644350528 O
   0.7688801723745337    0.9565477020192774    0.5070046644350528 O
   0.8799912834856447    0.2898810353526107    0.5070046644350528 O
   0.9911023945967555    0.6232143686859440    0.5070046644350528 O
   0.1022135057078668    0.9565477020192774    0.5070046644350528 O
   0.1790305580799090    0.1617269365066950    0.5321226821280914 O
   0.2901416691910201    0.4950602698400282    0.5321226821280914 O
   0.4012527803021314    0.8283936031733615    0.5321226821280914 O
   0.5123638914132425    0.1617269365066950    0.5321226821280914 O
   0.6234750025243535    0.4950602698400282    0.5321226821280914 O
   0.7345861136354647    0.8283936031733615    0.5321226821280914 O
   0.8456972247465758    0.1617269365066950    0.5321226821280914 O
   0.9568083358576869    0.4950602698400282    0.5321226821280914 O
   0.0679194469687980    0.8283936031733615    0.5321226821280914 O
   0.2749581412544211    0.1712742647700184    0.4641047725869014 O
   0.3860692523655322    0.5046075981033518    0.4641047725869014 O
   0.4971803634766433    0.8379409314366849    0.4641047725869014 O
   0.6082914745877545    0.1712742647700184    0.4641047725869014 O
   0.7194025856988655    0.5046075981033518    0.4641047725869014 O
   0.8305136968099768    0.8379409314366849    0.4641047725869014 O
   0.9416248079210878    0.1712742647700184    0.4641047725869014 O
   0.0527359190321990    0.5046075981033518    0.4641047725869014 O
   0.1638470301433099    0.8379409314366849    0.4641047725869014 O
   0.0868017947405528    0.2294456945443907    0.4783566460802423 O
   0.1979129058516639    0.5627790278777240    0.4783566460802423 O
   0.3090240169627750    0.8961123612110573    0.4783566460802423 O
   0.4201351280738862    0.2294456945443907    0.4783566460802423 O
   0.5312462391849972    0.5627790278777240    0.4783566460802423 O
   0.6423573502961085    0.8961123612110573    0.4783566460802423 O
   0.7534684614072196    0.2294456945443907    0.4783566460802423 O
   0.8645795725183305    0.5627790278777240    0.4783566460802423 O
   0.9756906836294418    0.8961123612110573    0.4783566460802423 O
   0.3615069629184212    0.1030918681968499    0.5164965710122726 O
   0.4726180740295323    0.4364252015301832    0.5164965710122726 O
   0.5837291851406433    0.7697585348635164    0.5164965710122726 O
   0.6948402962517545    0.1030918681968499    0.5164965710122726 O
   0.8059514073628656    0.4364252015301832    0.5164965710122726 O
   0.9170625184739767    0.7697585348635164    0.5164965710122726 O
   0.0281736295850878    0.1030918681968499    0.5164965710122726 O
   0.1392847406961988    0.4364252015301832    0.5164965710122726 O
   0.2503958518073099    0.7697585348635164    0.5164965710122726 O
