Bi V O
   1.00000000000000
     5.1667508474248462    0.0000000000000000    0.0000000000000000
     0.0000806620000000    5.1672092792590378    0.0000000000000000
     0.0000000000000000    0.0000000000000000   11.7587529796918204
   Bi   V    O
     4     4    16
Direct
  0.9999997870000001  0.2500000989999975  0.6249266888477152
  0.0000002129999999  0.7499999010000025  0.3750733111522848
  0.4999997939999972  0.7500002789999982  0.1250195061856090
  0.5000002060000028  0.2499997210000018  0.8749804938143910
  0.9999996239999973  0.2499998819999973  0.1250749734273953
  0.0000003760000027  0.7500001180000027  0.8749250265726047
  0.4999996990000000  0.7500000029999967  0.6248753244166565
  0.5000003010000000  0.2499999970000033  0.3751246755833435
  0.1398495051375974  0.5001653156140051  0.2036415588063036
  0.8601505098623932  0.4998346843859949  0.7963584261936916
  0.3602677841350044  0.5000130486069096  0.7035311175608641
  0.6397322158649956  0.4999869513930904  0.2964688824391359
  0.2498477730034310  0.3900428437696348  0.4536955692934015
  0.7501522269965690  0.6099571562303652  0.5463044307065985
  0.2501255568443383  0.6102815166616722  0.9535488145282685
  0.7498744431556617  0.3897184833383278  0.0464512004717363
  0.6397319308649969  0.9999870163930851  0.7035310595608664
  0.3602680691350031  0.0000129836069149  0.2964689404391336
  0.8601506318623962  0.9998339763859931  0.2036416838063033
  0.1398493831376015  0.0001660236140069  0.7963583011936919
  0.7498755901556677  0.8897182893383260  0.9535492855282683
  0.2501244098443394  0.1102816956616692  0.0464507294717365
  0.7501533269965677  0.1099568072303683  0.4536951772933975
  0.2498466730034323  0.8900431777696340  0.5463048227066025
