Bi V O                                  
   1.00000000000000     
     5.1095923301848272    0.0000000000000000    0.0000000000000000
     0.0000000000000000    5.1100456904983158    0.0000000000000000
     0.0000000000000000    0.0000000000000000   11.6286687343394792
   Bi   V    O 
     4     4    16
Direct
  0.9999997870000001  0.2500000989999975  0.6249174201726532
  0.0000002129999999  0.7499999010000025  0.3750825798273469
  0.4999997939999972  0.7500002789999982  0.1250370530211693
  0.5000002060000028  0.2499997210000018  0.8749629469788308
  0.9999996239999973  0.2499998819999973  0.1252613011562442
  0.0000003760000027  0.7500001180000027  0.8747386988437559
  0.4999996990000000  0.7500000029999967  0.6246530830962617
  0.5000003010000000  0.2499999970000033  0.3753469169037381
  0.1406263938920809  0.5003144839180410  0.2042955256061238
  0.8593736211079169  0.4996855160819590  0.7957044593938714
  0.3595125933797266  0.5002744529445270  0.7040124025846347
  0.6404874066202735  0.4997255470554728  0.2959875974153651
  0.2498613446840050  0.3909285072971351  0.4544226917127017
  0.7501386553159950  0.6090714927028648  0.5455773082872981
  0.2500683769305205  0.6096410243224755  0.9540080496551772
  0.7499316230694795  0.3903589756775246  0.0459919653448279
  0.6404871216202748 -0.0002743879445322  0.7040123445846370
  0.3595128783797253  0.0002743879445323  0.2959876554153628
  0.8593737431079199 -0.0003151919180427  0.2042956506061235
  0.1406262718920850  0.0003151919180427  0.7957043343938717
  0.7499327700694856  0.8903587816775227  0.9540085206551771
  0.2500672299305216  0.1096412033224724  0.0459914943448280
  0.7501397553159936  0.1090711437028680  0.4544222997126977
  0.2498602446840064  0.8909288412971345  0.5455777002873021
 
  0.00000000E+00  0.00000000E+00  0.00000000E+00
  0.00000000E+00  0.00000000E+00  0.00000000E+00
  0.00000000E+00  0.00000000E+00  0.00000000E+00
  0.00000000E+00  0.00000000E+00  0.00000000E+00
  0.00000000E+00  0.00000000E+00  0.00000000E+00
  0.00000000E+00  0.00000000E+00  0.00000000E+00
  0.00000000E+00  0.00000000E+00  0.00000000E+00
  0.00000000E+00  0.00000000E+00  0.00000000E+00
  0.00000000E+00  0.00000000E+00  0.00000000E+00
  0.00000000E+00  0.00000000E+00  0.00000000E+00
  0.00000000E+00  0.00000000E+00  0.00000000E+00
  0.00000000E+00  0.00000000E+00  0.00000000E+00
  0.00000000E+00  0.00000000E+00  0.00000000E+00
  0.00000000E+00  0.00000000E+00  0.00000000E+00
  0.00000000E+00  0.00000000E+00  0.00000000E+00
  0.00000000E+00  0.00000000E+00  0.00000000E+00
  0.00000000E+00  0.00000000E+00  0.00000000E+00
  0.00000000E+00  0.00000000E+00  0.00000000E+00
  0.00000000E+00  0.00000000E+00  0.00000000E+00
  0.00000000E+00  0.00000000E+00  0.00000000E+00
  0.00000000E+00  0.00000000E+00  0.00000000E+00
  0.00000000E+00  0.00000000E+00  0.00000000E+00
  0.00000000E+00  0.00000000E+00  0.00000000E+00
  0.00000000E+00  0.00000000E+00  0.00000000E+00
