Bi V O                                  
   1.00000000000000     
     5.1667508474248462    0.0000000000000000    0.0000000000000000
     0.0000000000000000    5.1672092792590378    0.0000000000000000
     0.0000000000000000    0.0000000000000000   11.7587529796918204
   Bi   V    O 
     4     4    16
Direct
  0.9999997870000001  0.2500000989999975  0.6249266888477158
  0.0000002129999999  0.7499999010000025  0.3750733111522840
  0.4999997939999972  0.7500002789999982  0.1250195061856110
  0.5000002060000028  0.2499997210000018  0.8749804938143888
  0.9999996239999973  0.2499998819999973  0.1250749734273955
  0.0000003760000027  0.7500001180000027  0.8749250265726046
  0.4999996990000000  0.7500000029999967  0.6248753244166578
  0.5000003010000000  0.2499999970000033  0.3751246755833421
  0.1398495051376008  0.5001653156140032  0.2036415588063068
  0.8601505098623967  0.4998346843859967  0.7963584261936885
  0.3602677841350073  0.5000130486069118  0.7035311175608655
  0.6397322158649927  0.4999869513930881  0.2964688824391344
  0.2498477730034281  0.3900428437696347  0.4536955692933988
  0.7501522269965720  0.6099571562303651  0.5463044307066010
  0.2501255568443393  0.6102815166616734  0.9535488145282709
  0.7498744431556605  0.3897184833383267  0.0464512004717340
  0.6397319308649940 -0.0000129836069171  0.7035310595608678
  0.3602680691350060  0.0000129836069171  0.2964689404391321
  0.8601506318623997 -0.0001660236140051  0.2036416838063065
  0.1398493831376049  0.0001660236140052  0.7963583011936888
  0.7498755901556666  0.8897182893383248  0.9535492855282708
  0.2501244098443404  0.1102816956616703  0.0464507294717341
  0.7501533269965707  0.1099568072303685  0.4536951772933948
  0.2498466730034295  0.8900431777696342  0.5463048227066050
 
  0.00000000E+00  0.00000000E+00  0.00000000E+00
  0.00000000E+00  0.00000000E+00  0.00000000E+00
  0.00000000E+00  0.00000000E+00  0.00000000E+00
  0.00000000E+00  0.00000000E+00  0.00000000E+00
  0.00000000E+00  0.00000000E+00  0.00000000E+00
  0.00000000E+00  0.00000000E+00  0.00000000E+00
  0.00000000E+00  0.00000000E+00  0.00000000E+00
  0.00000000E+00  0.00000000E+00  0.00000000E+00
  0.00000000E+00  0.00000000E+00  0.00000000E+00
  0.00000000E+00  0.00000000E+00  0.00000000E+00
  0.00000000E+00  0.00000000E+00  0.00000000E+00
  0.00000000E+00  0.00000000E+00  0.00000000E+00
  0.00000000E+00  0.00000000E+00  0.00000000E+00
  0.00000000E+00  0.00000000E+00  0.00000000E+00
  0.00000000E+00  0.00000000E+00  0.00000000E+00
  0.00000000E+00  0.00000000E+00  0.00000000E+00
  0.00000000E+00  0.00000000E+00  0.00000000E+00
  0.00000000E+00  0.00000000E+00  0.00000000E+00
  0.00000000E+00  0.00000000E+00  0.00000000E+00
  0.00000000E+00  0.00000000E+00  0.00000000E+00
  0.00000000E+00  0.00000000E+00  0.00000000E+00
  0.00000000E+00  0.00000000E+00  0.00000000E+00
  0.00000000E+00  0.00000000E+00  0.00000000E+00
  0.00000000E+00  0.00000000E+00  0.00000000E+00
