Bi V O                                  
   1.00000000000000     
     5.1768793142953484    0.0000000000000000    0.0000000000000000
     0.0000000000000000    5.1773386448010239    0.0000000000000000
     0.0000000000000000    0.0000000000000000   11.7818038570246379
   Bi   V    O 
     4     4    16
Direct
  0.9999997870000001  0.2500000989999975  0.6249236705917735
  0.0000002129999999  0.7499999010000025  0.3750763294082268
  0.4999997939999972  0.7500002789999982  0.1250240571364823
  0.5000002060000028  0.2499997210000018  0.8749759428635178
  0.9999996239999973  0.2499998819999973  0.1250965368358561
  0.0000003760000027  0.7500001180000027  0.8749034631641439
  0.4999996990000000  0.7500000029999967  0.6248472076556244
  0.5000003010000000  0.2499999970000033  0.3751527923443754
  0.1415648102048484  0.5009264309683668  0.2038242395108256
  0.8584352047951493  0.4990735690316331  0.7961757454891696
  0.3585539880131599  0.4993158731043368  0.7036970133821263
  0.6414460119868400  0.5006841268956633  0.2963029866178737
  0.2491255502986263  0.3917853214189194  0.4538887743285306
  0.7508744497013736  0.6082146785810807  0.5461112256714691
  0.2508601814550742  0.6085950788468322  0.9537076507663339
  0.7491398185449256  0.3914049211531679  0.0462923642336708
  0.6414457269868413  0.0006841918956580  0.7036969553821286
  0.3585542730131586 -0.0006841918956580  0.2963030446178714
  0.8584353267951523 -0.0009271389683685  0.2038243645108253
  0.1415646882048525  0.0009271389683685  0.7961756204891699
  0.7491409655449317  0.8914047271531660  0.9537081217663338
  0.2508590344550752  0.1085952578468292  0.0462918932336709
  0.7508755497013723  0.1082143295810837  0.4538883823285266
  0.2491244502986276  0.8917856554189185  0.5461116176714731
 
  0.00000000E+00  0.00000000E+00  0.00000000E+00
  0.00000000E+00  0.00000000E+00  0.00000000E+00
  0.00000000E+00  0.00000000E+00  0.00000000E+00
  0.00000000E+00  0.00000000E+00  0.00000000E+00
  0.00000000E+00  0.00000000E+00  0.00000000E+00
  0.00000000E+00  0.00000000E+00  0.00000000E+00
  0.00000000E+00  0.00000000E+00  0.00000000E+00
  0.00000000E+00  0.00000000E+00  0.00000000E+00
  0.00000000E+00  0.00000000E+00  0.00000000E+00
  0.00000000E+00  0.00000000E+00  0.00000000E+00
  0.00000000E+00  0.00000000E+00  0.00000000E+00
  0.00000000E+00  0.00000000E+00  0.00000000E+00
  0.00000000E+00  0.00000000E+00  0.00000000E+00
  0.00000000E+00  0.00000000E+00  0.00000000E+00
  0.00000000E+00  0.00000000E+00  0.00000000E+00
  0.00000000E+00  0.00000000E+00  0.00000000E+00
  0.00000000E+00  0.00000000E+00  0.00000000E+00
  0.00000000E+00  0.00000000E+00  0.00000000E+00
  0.00000000E+00  0.00000000E+00  0.00000000E+00
  0.00000000E+00  0.00000000E+00  0.00000000E+00
  0.00000000E+00  0.00000000E+00  0.00000000E+00
  0.00000000E+00  0.00000000E+00  0.00000000E+00
  0.00000000E+00  0.00000000E+00  0.00000000E+00
  0.00000000E+00  0.00000000E+00  0.00000000E+00
